*Heading
Plane strain swell-induced bending, generated u-p-mu Quad8 variant
** Converted from gelUEL/gelUEL/code/SwellInducedBending.inp
** The generated UEL uses p on DOF 11 and mu on DOF 12.
** Stored mu = physical mu - initMU, so initial DOF 12 is zero.
** GelVisualization duplicates the gel UEL with negligible-stiffness
** CPE8R elements so Abaqus/CAE displays both physical mesh layers.
** Its stress and strain are visualization artifacts, not UEL results.
*Parameter
phi0 = 0.999
theta = 25.0 + 273.0
initMU = -14382.975
** Effective reference for the shifted computational mu field.
mu0 = -initMU
tf = 3600.0*6.0
G = 50.e6
** A small rubber compressibility avoids singular CPE8H pressure modes.
nuRubber = 0.499
** Abaqus neo-Hooke D1=2/K0 with K0=2G(1+nu)/(3(1-2nu)).
D = 3.0*(1.0-2.0*nuRubber)/(G*(1.0+nuRubber))
C10 = 0.5*G
*Node
1, 0.0500000007, 0.00249999994
2, 0.049253732, 0.00249999994
3, 0.0485074632, 0.00249999994
4, 0.0477611944, 0.00249999994
5, 0.0470149256, 0.00249999994
6, 0.0462686568, 0.00249999994
7, 0.0455223881, 0.00249999994
8, 0.0447761193, 0.00249999994
9, 0.0440298505, 0.00249999994
10, 0.0432835817, 0.00249999994
11, 0.042537313, 0.00249999994
12, 0.0417910442, 0.00249999994
13, 0.0410447754, 0.00249999994
14, 0.0402985066, 0.00249999994
15, 0.0395522378, 0.00249999994
16, 0.0388059691, 0.00249999994
17, 0.0380597003, 0.00249999994
18, 0.0373134315, 0.00249999994
19, 0.0365671627, 0.00249999994
20, 0.0358208939, 0.00249999994
21, 0.0350746252, 0.00249999994
22, 0.0343283564, 0.00249999994
23, 0.0335820913, 0.00249999994
24, 0.0328358226, 0.00249999994
25, 0.0320895538, 0.00249999994
26, 0.031343285, 0.00249999994
27, 0.0305970144, 0.00249999994
28, 0.0298507456, 0.00249999994
29, 0.0291044768, 0.00249999994
30, 0.028358208, 0.00249999994
31, 0.0276119411, 0.00249999994
32, 0.0268656723, 0.00249999994
33, 0.0261194035, 0.00249999994
34, 0.0253731348, 0.00249999994
35, 0.024626866, 0.00249999994
36, 0.0238805972, 0.00249999994
37, 0.0231343284, 0.00249999994
38, 0.0223880596, 0.00249999994
39, 0.0216417909, 0.00249999994
40, 0.0208955221, 0.00249999994
41, 0.0201492533, 0.00249999994
42, 0.0194029845, 0.00249999994
43, 0.0186567158, 0.00249999994
44, 0.017910447, 0.00249999994
45, 0.0171641782, 0.00249999994
46, 0.0164179113, 0.00249999994
47, 0.0156716425, 0.00249999994
48, 0.0149253728, 0.00249999994
49, 0.014179104, 0.00249999994
50, 0.0134328362, 0.00249999994
51, 0.0126865674, 0.00249999994
52, 0.0119402986, 0.00249999994
53, 0.0111940298, 0.00249999994
54, 0.010447761, 0.00249999994
55, 0.00970149226, 0.00249999994
56, 0.00895522349, 0.00249999994
57, 0.00820895564, 0.00249999994
58, 0.00746268639, 0.00249999994
59, 0.00671641808, 0.00249999994
60, 0.0059701493, 0.00249999994
61, 0.00522388052, 0.00249999994
62, 0.00447761174, 0.00249999994
63, 0.0037313432, 0.00249999994
64, 0.00298507465, 0.00249999994
65, 0.00223880587, 0.00249999994
66, 0.00149253733, 0.00249999994
67, 0.000746268663, 0.00249999994
68, 0, 0.00249999994
69, 0.0500000007, 0.00166666671
70, 0.049253732, 0.00166666671
71, 0.0485074632, 0.00166666671
72, 0.0477611944, 0.00166666671
73, 0.0470149256, 0.00166666671
74, 0.0462686568, 0.00166666671
75, 0.0455223881, 0.00166666671
76, 0.0447761193, 0.00166666671
77, 0.0440298505, 0.00166666671
78, 0.0432835817, 0.00166666671
79, 0.042537313, 0.00166666671
80, 0.0417910442, 0.00166666671
81, 0.0410447754, 0.00166666671
82, 0.0402985066, 0.00166666671
83, 0.0395522378, 0.00166666671
84, 0.0388059691, 0.00166666671
85, 0.0380597003, 0.00166666671
86, 0.0373134315, 0.00166666671
87, 0.0365671627, 0.00166666671
88, 0.0358208939, 0.00166666671
89, 0.0350746252, 0.00166666671
90, 0.0343283564, 0.00166666671
91, 0.0335820913, 0.00166666671
92, 0.0328358226, 0.00166666671
93, 0.0320895538, 0.00166666671
94, 0.031343285, 0.00166666671
95, 0.0305970144, 0.00166666671
96, 0.0298507456, 0.00166666671
97, 0.0291044768, 0.00166666671
98, 0.0283582099, 0.00166666671
99, 0.0276119411, 0.00166666671
100, 0.0268656723, 0.00166666671
101, 0.0261194035, 0.00166666671
102, 0.0253731348, 0.00166666671
103, 0.024626866, 0.00166666671
104, 0.0238805972, 0.00166666671
105, 0.0231343284, 0.00166666671
106, 0.0223880596, 0.00166666671
107, 0.0216417909, 0.00166666671
108, 0.0208955221, 0.00166666671
109, 0.0201492533, 0.00166666671
110, 0.0194029845, 0.00166666671
111, 0.0186567158, 0.00166666671
112, 0.017910447, 0.00166666671
113, 0.0171641782, 0.00166666671
114, 0.0164179113, 0.00166666671
115, 0.0156716425, 0.00166666671
116, 0.0149253728, 0.00166666671
117, 0.0141791049, 0.00166666671
118, 0.0134328362, 0.00166666671
119, 0.0126865674, 0.00166666671
120, 0.0119402986, 0.00166666671
121, 0.0111940298, 0.00166666671
122, 0.010447761, 0.00166666671
123, 0.00970149226, 0.00166666671
124, 0.00895522349, 0.00166666671
125, 0.00820895564, 0.00166666671
126, 0.00746268639, 0.00166666671
127, 0.00671641808, 0.00166666671
128, 0.0059701493, 0.00166666671
129, 0.00522388052, 0.00166666671
130, 0.00447761174, 0.00166666671
131, 0.0037313432, 0.00166666671
132, 0.00298507465, 0.00166666671
133, 0.00223880587, 0.00166666671
134, 0.00149253733, 0.00166666671
135, 0.000746268663, 0.00166666671
136, 0, 0.00166666671
137, 0.0500000007, 0.000833333354
138, 0.049253732, 0.000833333354
139, 0.0485074632, 0.000833333354
140, 0.0477611944, 0.000833333354
141, 0.0470149256, 0.000833333354
142, 0.0462686568, 0.000833333354
143, 0.0455223881, 0.000833333354
144, 0.0447761193, 0.000833333354
145, 0.0440298505, 0.000833333354
146, 0.0432835817, 0.000833333354
147, 0.042537313, 0.000833333354
148, 0.0417910442, 0.000833333354
149, 0.0410447754, 0.000833333354
150, 0.0402985066, 0.000833333354
151, 0.0395522378, 0.000833333354
152, 0.0388059691, 0.000833333354
153, 0.0380597003, 0.000833333354
154, 0.0373134315, 0.000833333354
155, 0.0365671627, 0.000833333354
156, 0.0358208939, 0.000833333354
157, 0.0350746252, 0.000833333354
158, 0.0343283564, 0.000833333354
159, 0.0335820913, 0.000833333354
160, 0.0328358226, 0.000833333354
161, 0.0320895538, 0.000833333354
162, 0.031343285, 0.000833333354
163, 0.0305970144, 0.000833333354
164, 0.0298507456, 0.000833333354
165, 0.0291044768, 0.000833333354
166, 0.0283582099, 0.000833333354
167, 0.0276119411, 0.000833333354
168, 0.0268656723, 0.000833333354
169, 0.0261194035, 0.000833333354
170, 0.0253731348, 0.000833333354
171, 0.024626866, 0.000833333354
172, 0.0238805972, 0.000833333354
173, 0.0231343284, 0.000833333354
174, 0.0223880596, 0.000833333354
175, 0.0216417909, 0.000833333354
176, 0.0208955221, 0.000833333354
177, 0.0201492533, 0.000833333354
178, 0.0194029845, 0.000833333354
179, 0.0186567158, 0.000833333354
180, 0.017910447, 0.000833333354
181, 0.0171641782, 0.000833333354
182, 0.0164179113, 0.000833333354
183, 0.0156716425, 0.000833333354
184, 0.0149253728, 0.000833333354
185, 0.0141791049, 0.000833333354
186, 0.0134328362, 0.000833333354
187, 0.0126865674, 0.000833333354
188, 0.0119402986, 0.000833333354
189, 0.0111940298, 0.000833333354
190, 0.010447761, 0.000833333354
191, 0.00970149226, 0.000833333354
192, 0.00895522349, 0.000833333354
193, 0.00820895564, 0.000833333354
194, 0.00746268639, 0.000833333354
195, 0.00671641808, 0.000833333354
196, 0.0059701493, 0.000833333354
197, 0.00522388052, 0.000833333354
198, 0.00447761174, 0.000833333354
199, 0.0037313432, 0.000833333354
200, 0.00298507465, 0.000833333354
201, 0.00223880587, 0.000833333354
202, 0.00149253733, 0.000833333354
203, 0.000746268663, 0.000833333354
204, 0, 0.000833333354
205, 0.0500000007, 0
206, 0.049253732, 0
207, 0.0485074632, 0
208, 0.0477611944, 0
209, 0.0470149256, 0
210, 0.0462686568, 0
211, 0.0455223881, 0
212, 0.0447761193, 0
213, 0.0440298505, 0
214, 0.0432835817, 0
215, 0.042537313, 0
216, 0.0417910442, 0
217, 0.0410447754, 0
218, 0.0402985066, 0
219, 0.0395522378, 0
220, 0.0388059691, 0
221, 0.0380597003, 0
222, 0.0373134315, 0
223, 0.0365671627, 0
224, 0.0358208939, 0
225, 0.0350746252, 0
226, 0.0343283564, 0
227, 0.0335820913, 0
228, 0.0328358226, 0
229, 0.0320895538, 0
230, 0.031343285, 0
231, 0.0305970144, 0
232, 0.0298507456, 0
233, 0.0291044768, 0
234, 0.0283582099, 0
235, 0.0276119411, 0
236, 0.0268656723, 0
237, 0.0261194035, 0
238, 0.0253731348, 0
239, 0.024626866, 0
240, 0.0238805972, 0
241, 0.0231343284, 0
242, 0.0223880596, 0
243, 0.0216417909, 0
244, 0.0208955221, 0
245, 0.0201492533, 0
246, 0.0194029845, 0
247, 0.0186567158, 0
248, 0.017910447, 0
249, 0.0171641782, 0
250, 0.0164179113, 0
251, 0.0156716425, 0
252, 0.0149253728, 0
253, 0.0141791049, 0
254, 0.0134328362, 0
255, 0.0126865674, 0
256, 0.0119402986, 0
257, 0.0111940298, 0
258, 0.010447761, 0
259, 0.00970149226, 0
260, 0.00895522349, 0
261, 0.00820895564, 0
262, 0.00746268639, 0
263, 0.00671641808, 0
264, 0.0059701493, 0
265, 0.00522388052, 0
266, 0.00447761174, 0
267, 0.0037313432, 0
268, 0.00298507465, 0
269, 0.00223880587, 0
270, 0.00149253733, 0
271, 0.000746268663, 0
272, 0, 0
273, 0.000746268663, 0.00499999989
274, 0.00522388052, 0.00499999989
275, 0, 0.00499999989
276, 0.0500000007, 0.00499999989
277, 0, 0.00333333341
278, 0, 0.00416666688
279, 0.00223880587, 0.00499999989
280, 0.00298507465, 0.00499999989
281, 0.0037313432, 0.00499999989
282, 0.00149253733, 0.00499999989
283, 0.00447761174, 0.00499999989
284, 0.0500000007, 0.00333333341
285, 0.0500000007, 0.00416666688
286, 0.049253732, 0.00499999989
287, 0.0485074632, 0.00499999989
288, 0.0477611944, 0.00499999989
289, 0.0470149256, 0.00499999989
290, 0.0462686568, 0.00499999989
291, 0.0455223881, 0.00499999989
292, 0.0447761193, 0.00499999989
293, 0.0440298505, 0.00499999989
294, 0.0432835817, 0.00499999989
295, 0.042537313, 0.00499999989
296, 0.0417910442, 0.00499999989
297, 0.0410447754, 0.00499999989
298, 0.0402985066, 0.00499999989
299, 0.0395522378, 0.00499999989
300, 0.0388059691, 0.00499999989
301, 0.0380597003, 0.00499999989
302, 0.0373134315, 0.00499999989
303, 0.0365671627, 0.00499999989
304, 0.0358208939, 0.00499999989
305, 0.0350746252, 0.00499999989
306, 0.0343283564, 0.00499999989
307, 0.0335820913, 0.00499999989
308, 0.0328358226, 0.00499999989
309, 0.0320895538, 0.00499999989
310, 0.031343285, 0.00499999989
311, 0.0305970144, 0.00499999989
312, 0.0298507456, 0.00499999989
313, 0.0291044768, 0.00499999989
314, 0.0283582099, 0.00499999989
315, 0.0276119411, 0.00499999989
316, 0.0268656723, 0.00499999989
317, 0.0261194035, 0.00499999989
318, 0.0253731348, 0.00499999989
319, 0.024626866, 0.00499999989
320, 0.0238805972, 0.00499999989
321, 0.0231343284, 0.00499999989
322, 0.0223880596, 0.00499999989
323, 0.0216417909, 0.00499999989
324, 0.0208955221, 0.00499999989
325, 0.0201492533, 0.00499999989
326, 0.0194029845, 0.00499999989
327, 0.0186567158, 0.00499999989
328, 0.017910447, 0.00499999989
329, 0.0171641782, 0.00499999989
330, 0.0164179113, 0.00499999989
331, 0.0156716425, 0.00499999989
332, 0.0149253728, 0.00499999989
333, 0.0141791049, 0.00499999989
334, 0.0134328362, 0.00499999989
335, 0.0126865674, 0.00499999989
336, 0.0119402986, 0.00499999989
337, 0.0111940298, 0.00499999989
338, 0.010447761, 0.00499999989
339, 0.00970149226, 0.00499999989
340, 0.00895522349, 0.00499999989
341, 0.00820895564, 0.00499999989
342, 0.00746268639, 0.00499999989
343, 0.00671641808, 0.00499999989
344, 0.0059701493, 0.00499999989
345, 0.000746268663, 0.00333333341
346, 0.00149253733, 0.00333333341
347, 0.00223880587, 0.00333333341
348, 0.00298507465, 0.00333333341
349, 0.0037313432, 0.00333333341
350, 0.00447761174, 0.00333333341
351, 0.00522388052, 0.00333333341
352, 0.0059701493, 0.00333333341
353, 0.00671641808, 0.00333333341
354, 0.00746268639, 0.00333333341
355, 0.00820895564, 0.00333333341
356, 0.00895522349, 0.00333333341
357, 0.00970149226, 0.00333333341
358, 0.010447761, 0.00333333341
359, 0.0111940298, 0.00333333341
360, 0.0119402986, 0.00333333341
361, 0.0126865674, 0.00333333341
362, 0.0134328362, 0.00333333341
363, 0.014179104, 0.00333333341
364, 0.0149253728, 0.00333333341
365, 0.0156716425, 0.00333333341
366, 0.0164179113, 0.00333333341
367, 0.0171641782, 0.00333333341
368, 0.017910447, 0.00333333341
369, 0.0186567158, 0.00333333341
370, 0.0194029845, 0.00333333341
371, 0.0201492533, 0.00333333341
372, 0.0208955221, 0.00333333341
373, 0.0216417909, 0.00333333341
374, 0.0223880596, 0.00333333341
375, 0.0231343284, 0.00333333341
376, 0.0238805972, 0.00333333341
377, 0.024626866, 0.00333333341
378, 0.0253731348, 0.00333333341
379, 0.0261194035, 0.00333333341
380, 0.0268656723, 0.00333333341
381, 0.0276119411, 0.00333333341
382, 0.028358208, 0.00333333341
383, 0.0291044768, 0.00333333341
384, 0.0298507456, 0.00333333341
385, 0.0305970144, 0.00333333341
386, 0.031343285, 0.00333333341
387, 0.0320895538, 0.00333333341
388, 0.0328358226, 0.00333333341
389, 0.0335820913, 0.00333333341
390, 0.0343283564, 0.00333333341
391, 0.0350746252, 0.00333333341
392, 0.0358208939, 0.00333333341
393, 0.0365671627, 0.00333333341
394, 0.0373134315, 0.00333333341
395, 0.0380597003, 0.00333333341
396, 0.0388059691, 0.00333333341
397, 0.0395522378, 0.00333333341
398, 0.0402985066, 0.00333333341
399, 0.0410447754, 0.00333333341
400, 0.0417910442, 0.00333333341
401, 0.042537313, 0.00333333341
402, 0.0432835817, 0.00333333341
403, 0.0440298505, 0.00333333341
404, 0.0447761193, 0.00333333341
405, 0.0455223881, 0.00333333341
406, 0.0462686568, 0.00333333341
407, 0.0470149256, 0.00333333341
408, 0.0477611944, 0.00333333341
409, 0.0485074632, 0.00333333341
410, 0.049253732, 0.00333333341
411, 0.000746268663, 0.00416666688
412, 0.00149253733, 0.00416666688
413, 0.00223880587, 0.00416666688
414, 0.00298507465, 0.00416666688
415, 0.0037313432, 0.00416666688
416, 0.00447761174, 0.00416666688
417, 0.00522388052, 0.00416666688
418, 0.0059701493, 0.00416666688
419, 0.00671641808, 0.00416666688
420, 0.00746268639, 0.00416666688
421, 0.00820895564, 0.00416666688
422, 0.00895522349, 0.00416666688
423, 0.00970149226, 0.00416666688
424, 0.010447761, 0.00416666688
425, 0.0111940298, 0.00416666688
426, 0.0119402986, 0.00416666688
427, 0.0126865674, 0.00416666688
428, 0.0134328362, 0.00416666688
429, 0.014179104, 0.00416666688
430, 0.0149253728, 0.00416666688
431, 0.0156716425, 0.00416666688
432, 0.0164179113, 0.00416666688
433, 0.0171641782, 0.00416666688
434, 0.017910447, 0.00416666688
435, 0.0186567158, 0.00416666688
436, 0.0194029845, 0.00416666688
437, 0.0201492533, 0.00416666688
438, 0.0208955221, 0.00416666688
439, 0.0216417909, 0.00416666688
440, 0.0223880596, 0.00416666688
441, 0.0231343284, 0.00416666688
442, 0.0238805972, 0.00416666688
443, 0.024626866, 0.00416666688
444, 0.0253731348, 0.00416666688
445, 0.0261194035, 0.00416666688
446, 0.0268656723, 0.00416666688
447, 0.0276119411, 0.00416666688
448, 0.028358208, 0.00416666688
449, 0.0291044768, 0.00416666688
450, 0.0298507456, 0.00416666688
451, 0.0305970144, 0.00416666688
452, 0.031343285, 0.00416666688
453, 0.0320895538, 0.00416666688
454, 0.0328358226, 0.00416666688
455, 0.0335820913, 0.00416666688
456, 0.0343283564, 0.00416666688
457, 0.0350746252, 0.00416666688
458, 0.0358208939, 0.00416666688
459, 0.0365671627, 0.00416666688
460, 0.0373134315, 0.00416666688
461, 0.0380597003, 0.00416666688
462, 0.0388059691, 0.00416666688
463, 0.0395522378, 0.00416666688
464, 0.0402985066, 0.00416666688
465, 0.0410447754, 0.00416666688
466, 0.0417910442, 0.00416666688
467, 0.042537313, 0.00416666688
468, 0.0432835817, 0.00416666688
469, 0.0440298505, 0.00416666688
470, 0.0447761193, 0.00416666688
471, 0.0455223881, 0.00416666688
472, 0.0462686568, 0.00416666688
473, 0.0470149256, 0.00416666688
474, 0.0477611944, 0.00416666688
475, 0.0485074632, 0.00416666688
476, 0.049253732, 0.00416666688
477, 0.04962686635, 0.00249999994
478, 0.049253732, 0.002083333325
479, 0.04962686635, 0.00166666671
480, 0.0500000007, 0.002083333325
481, 0.0488805976, 0.00249999994
482, 0.0485074632, 0.002083333325
483, 0.0488805976, 0.00166666671
484, 0.0481343288, 0.00249999994
485, 0.0477611944, 0.002083333325
486, 0.0481343288, 0.00166666671
487, 0.04738806, 0.00249999994
488, 0.0470149256, 0.002083333325
489, 0.04738806, 0.00166666671
490, 0.0466417912, 0.00249999994
491, 0.0462686568, 0.002083333325
492, 0.0466417912, 0.00166666671
493, 0.04589552245, 0.00249999994
494, 0.0455223881, 0.002083333325
495, 0.04589552245, 0.00166666671
496, 0.0451492537, 0.00249999994
497, 0.0447761193, 0.002083333325
498, 0.0451492537, 0.00166666671
499, 0.0444029849, 0.00249999994
500, 0.0440298505, 0.002083333325
501, 0.0444029849, 0.00166666671
502, 0.0436567161, 0.00249999994
503, 0.0432835817, 0.002083333325
504, 0.0436567161, 0.00166666671
505, 0.04291044735, 0.00249999994
506, 0.042537313, 0.002083333325
507, 0.04291044735, 0.00166666671
508, 0.0421641786, 0.00249999994
509, 0.0417910442, 0.002083333325
510, 0.0421641786, 0.00166666671
511, 0.0414179098, 0.00249999994
512, 0.0410447754, 0.002083333325
513, 0.0414179098, 0.00166666671
514, 0.040671641, 0.00249999994
515, 0.0402985066, 0.002083333325
516, 0.040671641, 0.00166666671
517, 0.0399253722, 0.00249999994
518, 0.0395522378, 0.002083333325
519, 0.0399253722, 0.00166666671
520, 0.03917910345, 0.00249999994
521, 0.0388059691, 0.002083333325
522, 0.03917910345, 0.00166666671
523, 0.0384328347, 0.00249999994
524, 0.0380597003, 0.002083333325
525, 0.0384328347, 0.00166666671
526, 0.0376865659, 0.00249999994
527, 0.0373134315, 0.002083333325
528, 0.0376865659, 0.00166666671
529, 0.0369402971, 0.00249999994
530, 0.0365671627, 0.002083333325
531, 0.0369402971, 0.00166666671
532, 0.0361940283, 0.00249999994
533, 0.0358208939, 0.002083333325
534, 0.0361940283, 0.00166666671
535, 0.03544775955, 0.00249999994
536, 0.0350746252, 0.002083333325
537, 0.03544775955, 0.00166666671
538, 0.0347014908, 0.00249999994
539, 0.0343283564, 0.002083333325
540, 0.0347014908, 0.00166666671
541, 0.03395522385, 0.00249999994
542, 0.0335820913, 0.002083333325
543, 0.03395522385, 0.00166666671
544, 0.03320895695, 0.00249999994
545, 0.0328358226, 0.002083333325
546, 0.03320895695, 0.00166666671
547, 0.0324626882, 0.00249999994
548, 0.0320895538, 0.002083333325
549, 0.0324626882, 0.00166666671
550, 0.0317164194, 0.00249999994
551, 0.031343285, 0.002083333325
552, 0.0317164194, 0.00166666671
553, 0.0309701497, 0.00249999994
554, 0.0305970144, 0.002083333325
555, 0.0309701497, 0.00166666671
556, 0.03022388, 0.00249999994
557, 0.0298507456, 0.002083333325
558, 0.03022388, 0.00166666671
559, 0.0294776112, 0.00249999994
560, 0.0291044768, 0.002083333325
561, 0.0294776112, 0.00166666671
562, 0.0287313424, 0.00249999994
563, 0.02835820895, 0.002083333325
564, 0.02873134335, 0.00166666671
565, 0.02798507455, 0.00249999994
566, 0.0276119411, 0.002083333325
567, 0.0279850755, 0.00166666671
568, 0.0272388067, 0.00249999994
569, 0.0268656723, 0.002083333325
570, 0.0272388067, 0.00166666671
571, 0.0264925379, 0.00249999994
572, 0.0261194035, 0.002083333325
573, 0.0264925379, 0.00166666671
574, 0.02574626915, 0.00249999994
575, 0.0253731348, 0.002083333325
576, 0.02574626915, 0.00166666671
577, 0.0250000004, 0.00249999994
578, 0.024626866, 0.002083333325
579, 0.0250000004, 0.00166666671
580, 0.0242537316, 0.00249999994
581, 0.0238805972, 0.002083333325
582, 0.0242537316, 0.00166666671
583, 0.0235074628, 0.00249999994
584, 0.0231343284, 0.002083333325
585, 0.0235074628, 0.00166666671
586, 0.022761194, 0.00249999994
587, 0.0223880596, 0.002083333325
588, 0.022761194, 0.00166666671
589, 0.02201492525, 0.00249999994
590, 0.0216417909, 0.002083333325
591, 0.02201492525, 0.00166666671
592, 0.0212686565, 0.00249999994
593, 0.0208955221, 0.002083333325
594, 0.0212686565, 0.00166666671
595, 0.0205223877, 0.00249999994
596, 0.0201492533, 0.002083333325
597, 0.0205223877, 0.00166666671
598, 0.0197761189, 0.00249999994
599, 0.0194029845, 0.002083333325
600, 0.0197761189, 0.00166666671
601, 0.01902985015, 0.00249999994
602, 0.0186567158, 0.002083333325
603, 0.01902985015, 0.00166666671
604, 0.0182835814, 0.00249999994
605, 0.017910447, 0.002083333325
606, 0.0182835814, 0.00166666671
607, 0.0175373126, 0.00249999994
608, 0.0171641782, 0.002083333325
609, 0.0175373126, 0.00166666671
610, 0.01679104475, 0.00249999994
611, 0.0164179113, 0.002083333325
612, 0.01679104475, 0.00166666671
613, 0.0160447769, 0.00249999994
614, 0.0156716425, 0.002083333325
615, 0.0160447769, 0.00166666671
616, 0.01529850765, 0.00249999994
617, 0.0149253728, 0.002083333325
618, 0.01529850765, 0.00166666671
619, 0.0145522384, 0.00249999994
620, 0.01417910445, 0.002083333325
621, 0.01455223885, 0.00166666671
622, 0.0138059701, 0.00249999994
623, 0.0134328362, 0.002083333325
624, 0.01380597055, 0.00166666671
625, 0.0130597018, 0.00249999994
626, 0.0126865674, 0.002083333325
627, 0.0130597018, 0.00166666671
628, 0.012313433, 0.00249999994
629, 0.0119402986, 0.002083333325
630, 0.012313433, 0.00166666671
631, 0.0115671642, 0.00249999994
632, 0.0111940298, 0.002083333325
633, 0.0115671642, 0.00166666671
634, 0.0108208954, 0.00249999994
635, 0.010447761, 0.002083333325
636, 0.0108208954, 0.00166666671
637, 0.01007462663, 0.00249999994
638, 0.00970149226, 0.002083333325
639, 0.01007462663, 0.00166666671
640, 0.009328357875, 0.00249999994
641, 0.00895522349, 0.002083333325
642, 0.009328357875, 0.00166666671
643, 0.008582089565, 0.00249999994
644, 0.00820895564, 0.002083333325
645, 0.008582089565, 0.00166666671
646, 0.007835821015, 0.00249999994
647, 0.00746268639, 0.002083333325
648, 0.007835821015, 0.00166666671
649, 0.007089552235, 0.00249999994
650, 0.00671641808, 0.002083333325
651, 0.007089552235, 0.00166666671
652, 0.00634328369, 0.00249999994
653, 0.0059701493, 0.002083333325
654, 0.00634328369, 0.00166666671
655, 0.00559701491, 0.00249999994
656, 0.00522388052, 0.002083333325
657, 0.00559701491, 0.00166666671
658, 0.00485074613, 0.00249999994
659, 0.00447761174, 0.002083333325
660, 0.00485074613, 0.00166666671
661, 0.00410447747, 0.00249999994
662, 0.0037313432, 0.002083333325
663, 0.00410447747, 0.00166666671
664, 0.003358208925, 0.00249999994
665, 0.00298507465, 0.002083333325
666, 0.003358208925, 0.00166666671
667, 0.00261194026, 0.00249999994
668, 0.00223880587, 0.002083333325
669, 0.00261194026, 0.00166666671
670, 0.0018656716, 0.00249999994
671, 0.00149253733, 0.002083333325
672, 0.0018656716, 0.00166666671
673, 0.0011194029965, 0.00249999994
674, 0.000746268663, 0.002083333325
675, 0.0011194029965, 0.00166666671
676, 0.0003731343315, 0.00249999994
677, 0, 0.002083333325
678, 0.0003731343315, 0.00166666671
679, 0.049253732, 0.001250000032
680, 0.04962686635, 0.000833333354
681, 0.0500000007, 0.001250000032
682, 0.0485074632, 0.001250000032
683, 0.0488805976, 0.000833333354
684, 0.0477611944, 0.001250000032
685, 0.0481343288, 0.000833333354
686, 0.0470149256, 0.001250000032
687, 0.04738806, 0.000833333354
688, 0.0462686568, 0.001250000032
689, 0.0466417912, 0.000833333354
690, 0.0455223881, 0.001250000032
691, 0.04589552245, 0.000833333354
692, 0.0447761193, 0.001250000032
693, 0.0451492537, 0.000833333354
694, 0.0440298505, 0.001250000032
695, 0.0444029849, 0.000833333354
696, 0.0432835817, 0.001250000032
697, 0.0436567161, 0.000833333354
698, 0.042537313, 0.001250000032
699, 0.04291044735, 0.000833333354
700, 0.0417910442, 0.001250000032
701, 0.0421641786, 0.000833333354
702, 0.0410447754, 0.001250000032
703, 0.0414179098, 0.000833333354
704, 0.0402985066, 0.001250000032
705, 0.040671641, 0.000833333354
706, 0.0395522378, 0.001250000032
707, 0.0399253722, 0.000833333354
708, 0.0388059691, 0.001250000032
709, 0.03917910345, 0.000833333354
710, 0.0380597003, 0.001250000032
711, 0.0384328347, 0.000833333354
712, 0.0373134315, 0.001250000032
713, 0.0376865659, 0.000833333354
714, 0.0365671627, 0.001250000032
715, 0.0369402971, 0.000833333354
716, 0.0358208939, 0.001250000032
717, 0.0361940283, 0.000833333354
718, 0.0350746252, 0.001250000032
719, 0.03544775955, 0.000833333354
720, 0.0343283564, 0.001250000032
721, 0.0347014908, 0.000833333354
722, 0.0335820913, 0.001250000032
723, 0.03395522385, 0.000833333354
724, 0.0328358226, 0.001250000032
725, 0.03320895695, 0.000833333354
726, 0.0320895538, 0.001250000032
727, 0.0324626882, 0.000833333354
728, 0.031343285, 0.001250000032
729, 0.0317164194, 0.000833333354
730, 0.0305970144, 0.001250000032
731, 0.0309701497, 0.000833333354
732, 0.0298507456, 0.001250000032
733, 0.03022388, 0.000833333354
734, 0.0291044768, 0.001250000032
735, 0.0294776112, 0.000833333354
736, 0.0283582099, 0.001250000032
737, 0.02873134335, 0.000833333354
738, 0.0276119411, 0.001250000032
739, 0.0279850755, 0.000833333354
740, 0.0268656723, 0.001250000032
741, 0.0272388067, 0.000833333354
742, 0.0261194035, 0.001250000032
743, 0.0264925379, 0.000833333354
744, 0.0253731348, 0.001250000032
745, 0.02574626915, 0.000833333354
746, 0.024626866, 0.001250000032
747, 0.0250000004, 0.000833333354
748, 0.0238805972, 0.001250000032
749, 0.0242537316, 0.000833333354
750, 0.0231343284, 0.001250000032
751, 0.0235074628, 0.000833333354
752, 0.0223880596, 0.001250000032
753, 0.022761194, 0.000833333354
754, 0.0216417909, 0.001250000032
755, 0.02201492525, 0.000833333354
756, 0.0208955221, 0.001250000032
757, 0.0212686565, 0.000833333354
758, 0.0201492533, 0.001250000032
759, 0.0205223877, 0.000833333354
760, 0.0194029845, 0.001250000032
761, 0.0197761189, 0.000833333354
762, 0.0186567158, 0.001250000032
763, 0.01902985015, 0.000833333354
764, 0.017910447, 0.001250000032
765, 0.0182835814, 0.000833333354
766, 0.0171641782, 0.001250000032
767, 0.0175373126, 0.000833333354
768, 0.0164179113, 0.001250000032
769, 0.01679104475, 0.000833333354
770, 0.0156716425, 0.001250000032
771, 0.0160447769, 0.000833333354
772, 0.0149253728, 0.001250000032
773, 0.01529850765, 0.000833333354
774, 0.0141791049, 0.001250000032
775, 0.01455223885, 0.000833333354
776, 0.0134328362, 0.001250000032
777, 0.01380597055, 0.000833333354
778, 0.0126865674, 0.001250000032
779, 0.0130597018, 0.000833333354
780, 0.0119402986, 0.001250000032
781, 0.012313433, 0.000833333354
782, 0.0111940298, 0.001250000032
783, 0.0115671642, 0.000833333354
784, 0.010447761, 0.001250000032
785, 0.0108208954, 0.000833333354
786, 0.00970149226, 0.001250000032
787, 0.01007462663, 0.000833333354
788, 0.00895522349, 0.001250000032
789, 0.009328357875, 0.000833333354
790, 0.00820895564, 0.001250000032
791, 0.008582089565, 0.000833333354
792, 0.00746268639, 0.001250000032
793, 0.007835821015, 0.000833333354
794, 0.00671641808, 0.001250000032
795, 0.007089552235, 0.000833333354
796, 0.0059701493, 0.001250000032
797, 0.00634328369, 0.000833333354
798, 0.00522388052, 0.001250000032
799, 0.00559701491, 0.000833333354
800, 0.00447761174, 0.001250000032
801, 0.00485074613, 0.000833333354
802, 0.0037313432, 0.001250000032
803, 0.00410447747, 0.000833333354
804, 0.00298507465, 0.001250000032
805, 0.003358208925, 0.000833333354
806, 0.00223880587, 0.001250000032
807, 0.00261194026, 0.000833333354
808, 0.00149253733, 0.001250000032
809, 0.0018656716, 0.000833333354
810, 0.000746268663, 0.001250000032
811, 0.0011194029965, 0.000833333354
812, 0, 0.001250000032
813, 0.0003731343315, 0.000833333354
814, 0.049253732, 0.000416666677
815, 0.04962686635, 0
816, 0.0500000007, 0.000416666677
817, 0.0485074632, 0.000416666677
818, 0.0488805976, 0
819, 0.0477611944, 0.000416666677
820, 0.0481343288, 0
821, 0.0470149256, 0.000416666677
822, 0.04738806, 0
823, 0.0462686568, 0.000416666677
824, 0.0466417912, 0
825, 0.0455223881, 0.000416666677
826, 0.04589552245, 0
827, 0.0447761193, 0.000416666677
828, 0.0451492537, 0
829, 0.0440298505, 0.000416666677
830, 0.0444029849, 0
831, 0.0432835817, 0.000416666677
832, 0.0436567161, 0
833, 0.042537313, 0.000416666677
834, 0.04291044735, 0
835, 0.0417910442, 0.000416666677
836, 0.0421641786, 0
837, 0.0410447754, 0.000416666677
838, 0.0414179098, 0
839, 0.0402985066, 0.000416666677
840, 0.040671641, 0
841, 0.0395522378, 0.000416666677
842, 0.0399253722, 0
843, 0.0388059691, 0.000416666677
844, 0.03917910345, 0
845, 0.0380597003, 0.000416666677
846, 0.0384328347, 0
847, 0.0373134315, 0.000416666677
848, 0.0376865659, 0
849, 0.0365671627, 0.000416666677
850, 0.0369402971, 0
851, 0.0358208939, 0.000416666677
852, 0.0361940283, 0
853, 0.0350746252, 0.000416666677
854, 0.03544775955, 0
855, 0.0343283564, 0.000416666677
856, 0.0347014908, 0
857, 0.0335820913, 0.000416666677
858, 0.03395522385, 0
859, 0.0328358226, 0.000416666677
860, 0.03320895695, 0
861, 0.0320895538, 0.000416666677
862, 0.0324626882, 0
863, 0.031343285, 0.000416666677
864, 0.0317164194, 0
865, 0.0305970144, 0.000416666677
866, 0.0309701497, 0
867, 0.0298507456, 0.000416666677
868, 0.03022388, 0
869, 0.0291044768, 0.000416666677
870, 0.0294776112, 0
871, 0.0283582099, 0.000416666677
872, 0.02873134335, 0
873, 0.0276119411, 0.000416666677
874, 0.0279850755, 0
875, 0.0268656723, 0.000416666677
876, 0.0272388067, 0
877, 0.0261194035, 0.000416666677
878, 0.0264925379, 0
879, 0.0253731348, 0.000416666677
880, 0.02574626915, 0
881, 0.024626866, 0.000416666677
882, 0.0250000004, 0
883, 0.0238805972, 0.000416666677
884, 0.0242537316, 0
885, 0.0231343284, 0.000416666677
886, 0.0235074628, 0
887, 0.0223880596, 0.000416666677
888, 0.022761194, 0
889, 0.0216417909, 0.000416666677
890, 0.02201492525, 0
891, 0.0208955221, 0.000416666677
892, 0.0212686565, 0
893, 0.0201492533, 0.000416666677
894, 0.0205223877, 0
895, 0.0194029845, 0.000416666677
896, 0.0197761189, 0
897, 0.0186567158, 0.000416666677
898, 0.01902985015, 0
899, 0.017910447, 0.000416666677
900, 0.0182835814, 0
901, 0.0171641782, 0.000416666677
902, 0.0175373126, 0
903, 0.0164179113, 0.000416666677
904, 0.01679104475, 0
905, 0.0156716425, 0.000416666677
906, 0.0160447769, 0
907, 0.0149253728, 0.000416666677
908, 0.01529850765, 0
909, 0.0141791049, 0.000416666677
910, 0.01455223885, 0
911, 0.0134328362, 0.000416666677
912, 0.01380597055, 0
913, 0.0126865674, 0.000416666677
914, 0.0130597018, 0
915, 0.0119402986, 0.000416666677
916, 0.012313433, 0
917, 0.0111940298, 0.000416666677
918, 0.0115671642, 0
919, 0.010447761, 0.000416666677
920, 0.0108208954, 0
921, 0.00970149226, 0.000416666677
922, 0.01007462663, 0
923, 0.00895522349, 0.000416666677
924, 0.009328357875, 0
925, 0.00820895564, 0.000416666677
926, 0.008582089565, 0
927, 0.00746268639, 0.000416666677
928, 0.007835821015, 0
929, 0.00671641808, 0.000416666677
930, 0.007089552235, 0
931, 0.0059701493, 0.000416666677
932, 0.00634328369, 0
933, 0.00522388052, 0.000416666677
934, 0.00559701491, 0
935, 0.00447761174, 0.000416666677
936, 0.00485074613, 0
937, 0.0037313432, 0.000416666677
938, 0.00410447747, 0
939, 0.00298507465, 0.000416666677
940, 0.003358208925, 0
941, 0.00223880587, 0.000416666677
942, 0.00261194026, 0
943, 0.00149253733, 0.000416666677
944, 0.0018656716, 0
945, 0.000746268663, 0.000416666677
946, 0.0011194029965, 0
947, 0, 0.000416666677
948, 0.0003731343315, 0
949, 0.000746268663, 0.002916666675
950, 0.0003731343315, 0.00333333341
951, 0, 0.002916666675
952, 0.00149253733, 0.002916666675
953, 0.0011194029965, 0.00333333341
954, 0.00223880587, 0.002916666675
955, 0.0018656716, 0.00333333341
956, 0.00298507465, 0.002916666675
957, 0.00261194026, 0.00333333341
958, 0.0037313432, 0.002916666675
959, 0.003358208925, 0.00333333341
960, 0.00447761174, 0.002916666675
961, 0.00410447747, 0.00333333341
962, 0.00522388052, 0.002916666675
963, 0.00485074613, 0.00333333341
964, 0.0059701493, 0.002916666675
965, 0.00559701491, 0.00333333341
966, 0.00671641808, 0.002916666675
967, 0.00634328369, 0.00333333341
968, 0.00746268639, 0.002916666675
969, 0.007089552235, 0.00333333341
970, 0.00820895564, 0.002916666675
971, 0.007835821015, 0.00333333341
972, 0.00895522349, 0.002916666675
973, 0.008582089565, 0.00333333341
974, 0.00970149226, 0.002916666675
975, 0.009328357875, 0.00333333341
976, 0.010447761, 0.002916666675
977, 0.01007462663, 0.00333333341
978, 0.0111940298, 0.002916666675
979, 0.0108208954, 0.00333333341
980, 0.0119402986, 0.002916666675
981, 0.0115671642, 0.00333333341
982, 0.0126865674, 0.002916666675
983, 0.012313433, 0.00333333341
984, 0.0134328362, 0.002916666675
985, 0.0130597018, 0.00333333341
986, 0.014179104, 0.002916666675
987, 0.0138059701, 0.00333333341
988, 0.0149253728, 0.002916666675
989, 0.0145522384, 0.00333333341
990, 0.0156716425, 0.002916666675
991, 0.01529850765, 0.00333333341
992, 0.0164179113, 0.002916666675
993, 0.0160447769, 0.00333333341
994, 0.0171641782, 0.002916666675
995, 0.01679104475, 0.00333333341
996, 0.017910447, 0.002916666675
997, 0.0175373126, 0.00333333341
998, 0.0186567158, 0.002916666675
999, 0.0182835814, 0.00333333341
1000, 0.0194029845, 0.002916666675
1001, 0.01902985015, 0.00333333341
1002, 0.0201492533, 0.002916666675
1003, 0.0197761189, 0.00333333341
1004, 0.0208955221, 0.002916666675
1005, 0.0205223877, 0.00333333341
1006, 0.0216417909, 0.002916666675
1007, 0.0212686565, 0.00333333341
1008, 0.0223880596, 0.002916666675
1009, 0.02201492525, 0.00333333341
1010, 0.0231343284, 0.002916666675
1011, 0.022761194, 0.00333333341
1012, 0.0238805972, 0.002916666675
1013, 0.0235074628, 0.00333333341
1014, 0.024626866, 0.002916666675
1015, 0.0242537316, 0.00333333341
1016, 0.0253731348, 0.002916666675
1017, 0.0250000004, 0.00333333341
1018, 0.0261194035, 0.002916666675
1019, 0.02574626915, 0.00333333341
1020, 0.0268656723, 0.002916666675
1021, 0.0264925379, 0.00333333341
1022, 0.0276119411, 0.002916666675
1023, 0.0272388067, 0.00333333341
1024, 0.028358208, 0.002916666675
1025, 0.02798507455, 0.00333333341
1026, 0.0291044768, 0.002916666675
1027, 0.0287313424, 0.00333333341
1028, 0.0298507456, 0.002916666675
1029, 0.0294776112, 0.00333333341
1030, 0.0305970144, 0.002916666675
1031, 0.03022388, 0.00333333341
1032, 0.031343285, 0.002916666675
1033, 0.0309701497, 0.00333333341
1034, 0.0320895538, 0.002916666675
1035, 0.0317164194, 0.00333333341
1036, 0.0328358226, 0.002916666675
1037, 0.0324626882, 0.00333333341
1038, 0.0335820913, 0.002916666675
1039, 0.03320895695, 0.00333333341
1040, 0.0343283564, 0.002916666675
1041, 0.03395522385, 0.00333333341
1042, 0.0350746252, 0.002916666675
1043, 0.0347014908, 0.00333333341
1044, 0.0358208939, 0.002916666675
1045, 0.03544775955, 0.00333333341
1046, 0.0365671627, 0.002916666675
1047, 0.0361940283, 0.00333333341
1048, 0.0373134315, 0.002916666675
1049, 0.0369402971, 0.00333333341
1050, 0.0380597003, 0.002916666675
1051, 0.0376865659, 0.00333333341
1052, 0.0388059691, 0.002916666675
1053, 0.0384328347, 0.00333333341
1054, 0.0395522378, 0.002916666675
1055, 0.03917910345, 0.00333333341
1056, 0.0402985066, 0.002916666675
1057, 0.0399253722, 0.00333333341
1058, 0.0410447754, 0.002916666675
1059, 0.040671641, 0.00333333341
1060, 0.0417910442, 0.002916666675
1061, 0.0414179098, 0.00333333341
1062, 0.042537313, 0.002916666675
1063, 0.0421641786, 0.00333333341
1064, 0.0432835817, 0.002916666675
1065, 0.04291044735, 0.00333333341
1066, 0.0440298505, 0.002916666675
1067, 0.0436567161, 0.00333333341
1068, 0.0447761193, 0.002916666675
1069, 0.0444029849, 0.00333333341
1070, 0.0455223881, 0.002916666675
1071, 0.0451492537, 0.00333333341
1072, 0.0462686568, 0.002916666675
1073, 0.04589552245, 0.00333333341
1074, 0.0470149256, 0.002916666675
1075, 0.0466417912, 0.00333333341
1076, 0.0477611944, 0.002916666675
1077, 0.04738806, 0.00333333341
1078, 0.0485074632, 0.002916666675
1079, 0.0481343288, 0.00333333341
1080, 0.049253732, 0.002916666675
1081, 0.0488805976, 0.00333333341
1082, 0.0500000007, 0.002916666675
1083, 0.04962686635, 0.00333333341
1084, 0.000746268663, 0.003750000145
1085, 0.0003731343315, 0.00416666688
1086, 0, 0.003750000145
1087, 0.00149253733, 0.003750000145
1088, 0.0011194029965, 0.00416666688
1089, 0.00223880587, 0.003750000145
1090, 0.0018656716, 0.00416666688
1091, 0.00298507465, 0.003750000145
1092, 0.00261194026, 0.00416666688
1093, 0.0037313432, 0.003750000145
1094, 0.003358208925, 0.00416666688
1095, 0.00447761174, 0.003750000145
1096, 0.00410447747, 0.00416666688
1097, 0.00522388052, 0.003750000145
1098, 0.00485074613, 0.00416666688
1099, 0.0059701493, 0.003750000145
1100, 0.00559701491, 0.00416666688
1101, 0.00671641808, 0.003750000145
1102, 0.00634328369, 0.00416666688
1103, 0.00746268639, 0.003750000145
1104, 0.007089552235, 0.00416666688
1105, 0.00820895564, 0.003750000145
1106, 0.007835821015, 0.00416666688
1107, 0.00895522349, 0.003750000145
1108, 0.008582089565, 0.00416666688
1109, 0.00970149226, 0.003750000145
1110, 0.009328357875, 0.00416666688
1111, 0.010447761, 0.003750000145
1112, 0.01007462663, 0.00416666688
1113, 0.0111940298, 0.003750000145
1114, 0.0108208954, 0.00416666688
1115, 0.0119402986, 0.003750000145
1116, 0.0115671642, 0.00416666688
1117, 0.0126865674, 0.003750000145
1118, 0.012313433, 0.00416666688
1119, 0.0134328362, 0.003750000145
1120, 0.0130597018, 0.00416666688
1121, 0.014179104, 0.003750000145
1122, 0.0138059701, 0.00416666688
1123, 0.0149253728, 0.003750000145
1124, 0.0145522384, 0.00416666688
1125, 0.0156716425, 0.003750000145
1126, 0.01529850765, 0.00416666688
1127, 0.0164179113, 0.003750000145
1128, 0.0160447769, 0.00416666688
1129, 0.0171641782, 0.003750000145
1130, 0.01679104475, 0.00416666688
1131, 0.017910447, 0.003750000145
1132, 0.0175373126, 0.00416666688
1133, 0.0186567158, 0.003750000145
1134, 0.0182835814, 0.00416666688
1135, 0.0194029845, 0.003750000145
1136, 0.01902985015, 0.00416666688
1137, 0.0201492533, 0.003750000145
1138, 0.0197761189, 0.00416666688
1139, 0.0208955221, 0.003750000145
1140, 0.0205223877, 0.00416666688
1141, 0.0216417909, 0.003750000145
1142, 0.0212686565, 0.00416666688
1143, 0.0223880596, 0.003750000145
1144, 0.02201492525, 0.00416666688
1145, 0.0231343284, 0.003750000145
1146, 0.022761194, 0.00416666688
1147, 0.0238805972, 0.003750000145
1148, 0.0235074628, 0.00416666688
1149, 0.024626866, 0.003750000145
1150, 0.0242537316, 0.00416666688
1151, 0.0253731348, 0.003750000145
1152, 0.0250000004, 0.00416666688
1153, 0.0261194035, 0.003750000145
1154, 0.02574626915, 0.00416666688
1155, 0.0268656723, 0.003750000145
1156, 0.0264925379, 0.00416666688
1157, 0.0276119411, 0.003750000145
1158, 0.0272388067, 0.00416666688
1159, 0.028358208, 0.003750000145
1160, 0.02798507455, 0.00416666688
1161, 0.0291044768, 0.003750000145
1162, 0.0287313424, 0.00416666688
1163, 0.0298507456, 0.003750000145
1164, 0.0294776112, 0.00416666688
1165, 0.0305970144, 0.003750000145
1166, 0.03022388, 0.00416666688
1167, 0.031343285, 0.003750000145
1168, 0.0309701497, 0.00416666688
1169, 0.0320895538, 0.003750000145
1170, 0.0317164194, 0.00416666688
1171, 0.0328358226, 0.003750000145
1172, 0.0324626882, 0.00416666688
1173, 0.0335820913, 0.003750000145
1174, 0.03320895695, 0.00416666688
1175, 0.0343283564, 0.003750000145
1176, 0.03395522385, 0.00416666688
1177, 0.0350746252, 0.003750000145
1178, 0.0347014908, 0.00416666688
1179, 0.0358208939, 0.003750000145
1180, 0.03544775955, 0.00416666688
1181, 0.0365671627, 0.003750000145
1182, 0.0361940283, 0.00416666688
1183, 0.0373134315, 0.003750000145
1184, 0.0369402971, 0.00416666688
1185, 0.0380597003, 0.003750000145
1186, 0.0376865659, 0.00416666688
1187, 0.0388059691, 0.003750000145
1188, 0.0384328347, 0.00416666688
1189, 0.0395522378, 0.003750000145
1190, 0.03917910345, 0.00416666688
1191, 0.0402985066, 0.003750000145
1192, 0.0399253722, 0.00416666688
1193, 0.0410447754, 0.003750000145
1194, 0.040671641, 0.00416666688
1195, 0.0417910442, 0.003750000145
1196, 0.0414179098, 0.00416666688
1197, 0.042537313, 0.003750000145
1198, 0.0421641786, 0.00416666688
1199, 0.0432835817, 0.003750000145
1200, 0.04291044735, 0.00416666688
1201, 0.0440298505, 0.003750000145
1202, 0.0436567161, 0.00416666688
1203, 0.0447761193, 0.003750000145
1204, 0.0444029849, 0.00416666688
1205, 0.0455223881, 0.003750000145
1206, 0.0451492537, 0.00416666688
1207, 0.0462686568, 0.003750000145
1208, 0.04589552245, 0.00416666688
1209, 0.0470149256, 0.003750000145
1210, 0.0466417912, 0.00416666688
1211, 0.0477611944, 0.003750000145
1212, 0.04738806, 0.00416666688
1213, 0.0485074632, 0.003750000145
1214, 0.0481343288, 0.00416666688
1215, 0.049253732, 0.003750000145
1216, 0.0488805976, 0.00416666688
1217, 0.0500000007, 0.003750000145
1218, 0.04962686635, 0.00416666688
1219, 0.000746268663, 0.004583333385
1220, 0.0003731343315, 0.00499999989
1221, 0, 0.004583333385
1222, 0.00149253733, 0.004583333385
1223, 0.0011194029965, 0.00499999989
1224, 0.00223880587, 0.004583333385
1225, 0.0018656716, 0.00499999989
1226, 0.00298507465, 0.004583333385
1227, 0.00261194026, 0.00499999989
1228, 0.0037313432, 0.004583333385
1229, 0.003358208925, 0.00499999989
1230, 0.00447761174, 0.004583333385
1231, 0.00410447747, 0.00499999989
1232, 0.00522388052, 0.004583333385
1233, 0.00485074613, 0.00499999989
1234, 0.0059701493, 0.004583333385
1235, 0.00559701491, 0.00499999989
1236, 0.00671641808, 0.004583333385
1237, 0.00634328369, 0.00499999989
1238, 0.00746268639, 0.004583333385
1239, 0.007089552235, 0.00499999989
1240, 0.00820895564, 0.004583333385
1241, 0.007835821015, 0.00499999989
1242, 0.00895522349, 0.004583333385
1243, 0.008582089565, 0.00499999989
1244, 0.00970149226, 0.004583333385
1245, 0.009328357875, 0.00499999989
1246, 0.010447761, 0.004583333385
1247, 0.01007462663, 0.00499999989
1248, 0.0111940298, 0.004583333385
1249, 0.0108208954, 0.00499999989
1250, 0.0119402986, 0.004583333385
1251, 0.0115671642, 0.00499999989
1252, 0.0126865674, 0.004583333385
1253, 0.012313433, 0.00499999989
1254, 0.0134328362, 0.004583333385
1255, 0.0130597018, 0.00499999989
1256, 0.01417910445, 0.004583333385
1257, 0.01380597055, 0.00499999989
1258, 0.0149253728, 0.004583333385
1259, 0.01455223885, 0.00499999989
1260, 0.0156716425, 0.004583333385
1261, 0.01529850765, 0.00499999989
1262, 0.0164179113, 0.004583333385
1263, 0.0160447769, 0.00499999989
1264, 0.0171641782, 0.004583333385
1265, 0.01679104475, 0.00499999989
1266, 0.017910447, 0.004583333385
1267, 0.0175373126, 0.00499999989
1268, 0.0186567158, 0.004583333385
1269, 0.0182835814, 0.00499999989
1270, 0.0194029845, 0.004583333385
1271, 0.01902985015, 0.00499999989
1272, 0.0201492533, 0.004583333385
1273, 0.0197761189, 0.00499999989
1274, 0.0208955221, 0.004583333385
1275, 0.0205223877, 0.00499999989
1276, 0.0216417909, 0.004583333385
1277, 0.0212686565, 0.00499999989
1278, 0.0223880596, 0.004583333385
1279, 0.02201492525, 0.00499999989
1280, 0.0231343284, 0.004583333385
1281, 0.022761194, 0.00499999989
1282, 0.0238805972, 0.004583333385
1283, 0.0235074628, 0.00499999989
1284, 0.024626866, 0.004583333385
1285, 0.0242537316, 0.00499999989
1286, 0.0253731348, 0.004583333385
1287, 0.0250000004, 0.00499999989
1288, 0.0261194035, 0.004583333385
1289, 0.02574626915, 0.00499999989
1290, 0.0268656723, 0.004583333385
1291, 0.0264925379, 0.00499999989
1292, 0.0276119411, 0.004583333385
1293, 0.0272388067, 0.00499999989
1294, 0.02835820895, 0.004583333385
1295, 0.0279850755, 0.00499999989
1296, 0.0291044768, 0.004583333385
1297, 0.02873134335, 0.00499999989
1298, 0.0298507456, 0.004583333385
1299, 0.0294776112, 0.00499999989
1300, 0.0305970144, 0.004583333385
1301, 0.03022388, 0.00499999989
1302, 0.031343285, 0.004583333385
1303, 0.0309701497, 0.00499999989
1304, 0.0320895538, 0.004583333385
1305, 0.0317164194, 0.00499999989
1306, 0.0328358226, 0.004583333385
1307, 0.0324626882, 0.00499999989
1308, 0.0335820913, 0.004583333385
1309, 0.03320895695, 0.00499999989
1310, 0.0343283564, 0.004583333385
1311, 0.03395522385, 0.00499999989
1312, 0.0350746252, 0.004583333385
1313, 0.0347014908, 0.00499999989
1314, 0.0358208939, 0.004583333385
1315, 0.03544775955, 0.00499999989
1316, 0.0365671627, 0.004583333385
1317, 0.0361940283, 0.00499999989
1318, 0.0373134315, 0.004583333385
1319, 0.0369402971, 0.00499999989
1320, 0.0380597003, 0.004583333385
1321, 0.0376865659, 0.00499999989
1322, 0.0388059691, 0.004583333385
1323, 0.0384328347, 0.00499999989
1324, 0.0395522378, 0.004583333385
1325, 0.03917910345, 0.00499999989
1326, 0.0402985066, 0.004583333385
1327, 0.0399253722, 0.00499999989
1328, 0.0410447754, 0.004583333385
1329, 0.040671641, 0.00499999989
1330, 0.0417910442, 0.004583333385
1331, 0.0414179098, 0.00499999989
1332, 0.042537313, 0.004583333385
1333, 0.0421641786, 0.00499999989
1334, 0.0432835817, 0.004583333385
1335, 0.04291044735, 0.00499999989
1336, 0.0440298505, 0.004583333385
1337, 0.0436567161, 0.00499999989
1338, 0.0447761193, 0.004583333385
1339, 0.0444029849, 0.00499999989
1340, 0.0455223881, 0.004583333385
1341, 0.0451492537, 0.00499999989
1342, 0.0462686568, 0.004583333385
1343, 0.04589552245, 0.00499999989
1344, 0.0470149256, 0.004583333385
1345, 0.0466417912, 0.00499999989
1346, 0.0477611944, 0.004583333385
1347, 0.04738806, 0.00499999989
1348, 0.0485074632, 0.004583333385
1349, 0.0481343288, 0.00499999989
1350, 0.049253732, 0.004583333385
1351, 0.0488805976, 0.00499999989
1352, 0.0500000007, 0.004583333385
1353, 0.04962686635, 0.00499999989
*Element, type=CPE8H, elset=RubberSet
1, 1, 2, 70, 69, 477, 478, 479, 480
2, 2, 3, 71, 70, 481, 482, 483, 478
3, 3, 4, 72, 71, 484, 485, 486, 482
4, 4, 5, 73, 72, 487, 488, 489, 485
5, 5, 6, 74, 73, 490, 491, 492, 488
6, 6, 7, 75, 74, 493, 494, 495, 491
7, 7, 8, 76, 75, 496, 497, 498, 494
8, 8, 9, 77, 76, 499, 500, 501, 497
9, 9, 10, 78, 77, 502, 503, 504, 500
10, 10, 11, 79, 78, 505, 506, 507, 503
11, 11, 12, 80, 79, 508, 509, 510, 506
12, 12, 13, 81, 80, 511, 512, 513, 509
13, 13, 14, 82, 81, 514, 515, 516, 512
14, 14, 15, 83, 82, 517, 518, 519, 515
15, 15, 16, 84, 83, 520, 521, 522, 518
16, 16, 17, 85, 84, 523, 524, 525, 521
17, 17, 18, 86, 85, 526, 527, 528, 524
18, 18, 19, 87, 86, 529, 530, 531, 527
19, 19, 20, 88, 87, 532, 533, 534, 530
20, 20, 21, 89, 88, 535, 536, 537, 533
21, 21, 22, 90, 89, 538, 539, 540, 536
22, 22, 23, 91, 90, 541, 542, 543, 539
23, 23, 24, 92, 91, 544, 545, 546, 542
24, 24, 25, 93, 92, 547, 548, 549, 545
25, 25, 26, 94, 93, 550, 551, 552, 548
26, 26, 27, 95, 94, 553, 554, 555, 551
27, 27, 28, 96, 95, 556, 557, 558, 554
28, 28, 29, 97, 96, 559, 560, 561, 557
29, 29, 30, 98, 97, 562, 563, 564, 560
30, 30, 31, 99, 98, 565, 566, 567, 563
31, 31, 32, 100, 99, 568, 569, 570, 566
32, 32, 33, 101, 100, 571, 572, 573, 569
33, 33, 34, 102, 101, 574, 575, 576, 572
34, 34, 35, 103, 102, 577, 578, 579, 575
35, 35, 36, 104, 103, 580, 581, 582, 578
36, 36, 37, 105, 104, 583, 584, 585, 581
37, 37, 38, 106, 105, 586, 587, 588, 584
38, 38, 39, 107, 106, 589, 590, 591, 587
39, 39, 40, 108, 107, 592, 593, 594, 590
40, 40, 41, 109, 108, 595, 596, 597, 593
41, 41, 42, 110, 109, 598, 599, 600, 596
42, 42, 43, 111, 110, 601, 602, 603, 599
43, 43, 44, 112, 111, 604, 605, 606, 602
44, 44, 45, 113, 112, 607, 608, 609, 605
45, 45, 46, 114, 113, 610, 611, 612, 608
46, 46, 47, 115, 114, 613, 614, 615, 611
47, 47, 48, 116, 115, 616, 617, 618, 614
48, 48, 49, 117, 116, 619, 620, 621, 617
49, 49, 50, 118, 117, 622, 623, 624, 620
50, 50, 51, 119, 118, 625, 626, 627, 623
51, 51, 52, 120, 119, 628, 629, 630, 626
52, 52, 53, 121, 120, 631, 632, 633, 629
53, 53, 54, 122, 121, 634, 635, 636, 632
54, 54, 55, 123, 122, 637, 638, 639, 635
55, 55, 56, 124, 123, 640, 641, 642, 638
56, 56, 57, 125, 124, 643, 644, 645, 641
57, 57, 58, 126, 125, 646, 647, 648, 644
58, 58, 59, 127, 126, 649, 650, 651, 647
59, 59, 60, 128, 127, 652, 653, 654, 650
60, 60, 61, 129, 128, 655, 656, 657, 653
61, 61, 62, 130, 129, 658, 659, 660, 656
62, 62, 63, 131, 130, 661, 662, 663, 659
63, 63, 64, 132, 131, 664, 665, 666, 662
64, 64, 65, 133, 132, 667, 668, 669, 665
65, 65, 66, 134, 133, 670, 671, 672, 668
66, 66, 67, 135, 134, 673, 674, 675, 671
67, 67, 68, 136, 135, 676, 677, 678, 674
68, 69, 70, 138, 137, 479, 679, 680, 681
69, 70, 71, 139, 138, 483, 682, 683, 679
70, 71, 72, 140, 139, 486, 684, 685, 682
71, 72, 73, 141, 140, 489, 686, 687, 684
72, 73, 74, 142, 141, 492, 688, 689, 686
73, 74, 75, 143, 142, 495, 690, 691, 688
74, 75, 76, 144, 143, 498, 692, 693, 690
75, 76, 77, 145, 144, 501, 694, 695, 692
76, 77, 78, 146, 145, 504, 696, 697, 694
77, 78, 79, 147, 146, 507, 698, 699, 696
78, 79, 80, 148, 147, 510, 700, 701, 698
79, 80, 81, 149, 148, 513, 702, 703, 700
80, 81, 82, 150, 149, 516, 704, 705, 702
81, 82, 83, 151, 150, 519, 706, 707, 704
82, 83, 84, 152, 151, 522, 708, 709, 706
83, 84, 85, 153, 152, 525, 710, 711, 708
84, 85, 86, 154, 153, 528, 712, 713, 710
85, 86, 87, 155, 154, 531, 714, 715, 712
86, 87, 88, 156, 155, 534, 716, 717, 714
87, 88, 89, 157, 156, 537, 718, 719, 716
88, 89, 90, 158, 157, 540, 720, 721, 718
89, 90, 91, 159, 158, 543, 722, 723, 720
90, 91, 92, 160, 159, 546, 724, 725, 722
91, 92, 93, 161, 160, 549, 726, 727, 724
92, 93, 94, 162, 161, 552, 728, 729, 726
93, 94, 95, 163, 162, 555, 730, 731, 728
94, 95, 96, 164, 163, 558, 732, 733, 730
95, 96, 97, 165, 164, 561, 734, 735, 732
96, 97, 98, 166, 165, 564, 736, 737, 734
97, 98, 99, 167, 166, 567, 738, 739, 736
98, 99, 100, 168, 167, 570, 740, 741, 738
99, 100, 101, 169, 168, 573, 742, 743, 740
100, 101, 102, 170, 169, 576, 744, 745, 742
101, 102, 103, 171, 170, 579, 746, 747, 744
102, 103, 104, 172, 171, 582, 748, 749, 746
103, 104, 105, 173, 172, 585, 750, 751, 748
104, 105, 106, 174, 173, 588, 752, 753, 750
105, 106, 107, 175, 174, 591, 754, 755, 752
106, 107, 108, 176, 175, 594, 756, 757, 754
107, 108, 109, 177, 176, 597, 758, 759, 756
108, 109, 110, 178, 177, 600, 760, 761, 758
109, 110, 111, 179, 178, 603, 762, 763, 760
110, 111, 112, 180, 179, 606, 764, 765, 762
111, 112, 113, 181, 180, 609, 766, 767, 764
112, 113, 114, 182, 181, 612, 768, 769, 766
113, 114, 115, 183, 182, 615, 770, 771, 768
114, 115, 116, 184, 183, 618, 772, 773, 770
115, 116, 117, 185, 184, 621, 774, 775, 772
116, 117, 118, 186, 185, 624, 776, 777, 774
117, 118, 119, 187, 186, 627, 778, 779, 776
118, 119, 120, 188, 187, 630, 780, 781, 778
119, 120, 121, 189, 188, 633, 782, 783, 780
120, 121, 122, 190, 189, 636, 784, 785, 782
121, 122, 123, 191, 190, 639, 786, 787, 784
122, 123, 124, 192, 191, 642, 788, 789, 786
123, 124, 125, 193, 192, 645, 790, 791, 788
124, 125, 126, 194, 193, 648, 792, 793, 790
125, 126, 127, 195, 194, 651, 794, 795, 792
126, 127, 128, 196, 195, 654, 796, 797, 794
127, 128, 129, 197, 196, 657, 798, 799, 796
128, 129, 130, 198, 197, 660, 800, 801, 798
129, 130, 131, 199, 198, 663, 802, 803, 800
130, 131, 132, 200, 199, 666, 804, 805, 802
131, 132, 133, 201, 200, 669, 806, 807, 804
132, 133, 134, 202, 201, 672, 808, 809, 806
133, 134, 135, 203, 202, 675, 810, 811, 808
134, 135, 136, 204, 203, 678, 812, 813, 810
135, 137, 138, 206, 205, 680, 814, 815, 816
136, 138, 139, 207, 206, 683, 817, 818, 814
137, 139, 140, 208, 207, 685, 819, 820, 817
138, 140, 141, 209, 208, 687, 821, 822, 819
139, 141, 142, 210, 209, 689, 823, 824, 821
140, 142, 143, 211, 210, 691, 825, 826, 823
141, 143, 144, 212, 211, 693, 827, 828, 825
142, 144, 145, 213, 212, 695, 829, 830, 827
143, 145, 146, 214, 213, 697, 831, 832, 829
144, 146, 147, 215, 214, 699, 833, 834, 831
145, 147, 148, 216, 215, 701, 835, 836, 833
146, 148, 149, 217, 216, 703, 837, 838, 835
147, 149, 150, 218, 217, 705, 839, 840, 837
148, 150, 151, 219, 218, 707, 841, 842, 839
149, 151, 152, 220, 219, 709, 843, 844, 841
150, 152, 153, 221, 220, 711, 845, 846, 843
151, 153, 154, 222, 221, 713, 847, 848, 845
152, 154, 155, 223, 222, 715, 849, 850, 847
153, 155, 156, 224, 223, 717, 851, 852, 849
154, 156, 157, 225, 224, 719, 853, 854, 851
155, 157, 158, 226, 225, 721, 855, 856, 853
156, 158, 159, 227, 226, 723, 857, 858, 855
157, 159, 160, 228, 227, 725, 859, 860, 857
158, 160, 161, 229, 228, 727, 861, 862, 859
159, 161, 162, 230, 229, 729, 863, 864, 861
160, 162, 163, 231, 230, 731, 865, 866, 863
161, 163, 164, 232, 231, 733, 867, 868, 865
162, 164, 165, 233, 232, 735, 869, 870, 867
163, 165, 166, 234, 233, 737, 871, 872, 869
164, 166, 167, 235, 234, 739, 873, 874, 871
165, 167, 168, 236, 235, 741, 875, 876, 873
166, 168, 169, 237, 236, 743, 877, 878, 875
167, 169, 170, 238, 237, 745, 879, 880, 877
168, 170, 171, 239, 238, 747, 881, 882, 879
169, 171, 172, 240, 239, 749, 883, 884, 881
170, 172, 173, 241, 240, 751, 885, 886, 883
171, 173, 174, 242, 241, 753, 887, 888, 885
172, 174, 175, 243, 242, 755, 889, 890, 887
173, 175, 176, 244, 243, 757, 891, 892, 889
174, 176, 177, 245, 244, 759, 893, 894, 891
175, 177, 178, 246, 245, 761, 895, 896, 893
176, 178, 179, 247, 246, 763, 897, 898, 895
177, 179, 180, 248, 247, 765, 899, 900, 897
178, 180, 181, 249, 248, 767, 901, 902, 899
179, 181, 182, 250, 249, 769, 903, 904, 901
180, 182, 183, 251, 250, 771, 905, 906, 903
181, 183, 184, 252, 251, 773, 907, 908, 905
182, 184, 185, 253, 252, 775, 909, 910, 907
183, 185, 186, 254, 253, 777, 911, 912, 909
184, 186, 187, 255, 254, 779, 913, 914, 911
185, 187, 188, 256, 255, 781, 915, 916, 913
186, 188, 189, 257, 256, 783, 917, 918, 915
187, 189, 190, 258, 257, 785, 919, 920, 917
188, 190, 191, 259, 258, 787, 921, 922, 919
189, 191, 192, 260, 259, 789, 923, 924, 921
190, 192, 193, 261, 260, 791, 925, 926, 923
191, 193, 194, 262, 261, 793, 927, 928, 925
192, 194, 195, 263, 262, 795, 929, 930, 927
193, 195, 196, 264, 263, 797, 931, 932, 929
194, 196, 197, 265, 264, 799, 933, 934, 931
195, 197, 198, 266, 265, 801, 935, 936, 933
196, 198, 199, 267, 266, 803, 937, 938, 935
197, 199, 200, 268, 267, 805, 939, 940, 937
198, 200, 201, 269, 268, 807, 941, 942, 939
199, 201, 202, 270, 269, 809, 943, 944, 941
200, 202, 203, 271, 270, 811, 945, 946, 943
201, 203, 204, 272, 271, 813, 947, 948, 945
*User Element, Type=U1, Nodes=8, Coordinates=2, Properties=9, Variables=9, Unsymm
1, 2, 11, 12
5, 1, 2, 12
*Element, type=U1, elset=GelSet
202, 68, 67, 345, 277, 676, 949, 950, 951
203, 67, 66, 346, 345, 673, 952, 953, 949
204, 66, 65, 347, 346, 670, 954, 955, 952
205, 65, 64, 348, 347, 667, 956, 957, 954
206, 64, 63, 349, 348, 664, 958, 959, 956
207, 63, 62, 350, 349, 661, 960, 961, 958
208, 62, 61, 351, 350, 658, 962, 963, 960
209, 61, 60, 352, 351, 655, 964, 965, 962
210, 60, 59, 353, 352, 652, 966, 967, 964
211, 59, 58, 354, 353, 649, 968, 969, 966
212, 58, 57, 355, 354, 646, 970, 971, 968
213, 57, 56, 356, 355, 643, 972, 973, 970
214, 56, 55, 357, 356, 640, 974, 975, 972
215, 55, 54, 358, 357, 637, 976, 977, 974
216, 54, 53, 359, 358, 634, 978, 979, 976
217, 53, 52, 360, 359, 631, 980, 981, 978
218, 52, 51, 361, 360, 628, 982, 983, 980
219, 51, 50, 362, 361, 625, 984, 985, 982
220, 50, 49, 363, 362, 622, 986, 987, 984
221, 49, 48, 364, 363, 619, 988, 989, 986
222, 48, 47, 365, 364, 616, 990, 991, 988
223, 47, 46, 366, 365, 613, 992, 993, 990
224, 46, 45, 367, 366, 610, 994, 995, 992
225, 45, 44, 368, 367, 607, 996, 997, 994
226, 44, 43, 369, 368, 604, 998, 999, 996
227, 43, 42, 370, 369, 601, 1000, 1001, 998
228, 42, 41, 371, 370, 598, 1002, 1003, 1000
229, 41, 40, 372, 371, 595, 1004, 1005, 1002
230, 40, 39, 373, 372, 592, 1006, 1007, 1004
231, 39, 38, 374, 373, 589, 1008, 1009, 1006
232, 38, 37, 375, 374, 586, 1010, 1011, 1008
233, 37, 36, 376, 375, 583, 1012, 1013, 1010
234, 36, 35, 377, 376, 580, 1014, 1015, 1012
235, 35, 34, 378, 377, 577, 1016, 1017, 1014
236, 34, 33, 379, 378, 574, 1018, 1019, 1016
237, 33, 32, 380, 379, 571, 1020, 1021, 1018
238, 32, 31, 381, 380, 568, 1022, 1023, 1020
239, 31, 30, 382, 381, 565, 1024, 1025, 1022
240, 30, 29, 383, 382, 562, 1026, 1027, 1024
241, 29, 28, 384, 383, 559, 1028, 1029, 1026
242, 28, 27, 385, 384, 556, 1030, 1031, 1028
243, 27, 26, 386, 385, 553, 1032, 1033, 1030
244, 26, 25, 387, 386, 550, 1034, 1035, 1032
245, 25, 24, 388, 387, 547, 1036, 1037, 1034
246, 24, 23, 389, 388, 544, 1038, 1039, 1036
247, 23, 22, 390, 389, 541, 1040, 1041, 1038
248, 22, 21, 391, 390, 538, 1042, 1043, 1040
249, 21, 20, 392, 391, 535, 1044, 1045, 1042
250, 20, 19, 393, 392, 532, 1046, 1047, 1044
251, 19, 18, 394, 393, 529, 1048, 1049, 1046
252, 18, 17, 395, 394, 526, 1050, 1051, 1048
253, 17, 16, 396, 395, 523, 1052, 1053, 1050
254, 16, 15, 397, 396, 520, 1054, 1055, 1052
255, 15, 14, 398, 397, 517, 1056, 1057, 1054
256, 14, 13, 399, 398, 514, 1058, 1059, 1056
257, 13, 12, 400, 399, 511, 1060, 1061, 1058
258, 12, 11, 401, 400, 508, 1062, 1063, 1060
259, 11, 10, 402, 401, 505, 1064, 1065, 1062
260, 10, 9, 403, 402, 502, 1066, 1067, 1064
261, 9, 8, 404, 403, 499, 1068, 1069, 1066
262, 8, 7, 405, 404, 496, 1070, 1071, 1068
263, 7, 6, 406, 405, 493, 1072, 1073, 1070
264, 6, 5, 407, 406, 490, 1074, 1075, 1072
265, 5, 4, 408, 407, 487, 1076, 1077, 1074
266, 4, 3, 409, 408, 484, 1078, 1079, 1076
267, 3, 2, 410, 409, 481, 1080, 1081, 1078
268, 2, 1, 284, 410, 477, 1082, 1083, 1080
269, 277, 345, 411, 278, 950, 1084, 1085, 1086
270, 345, 346, 412, 411, 953, 1087, 1088, 1084
271, 346, 347, 413, 412, 955, 1089, 1090, 1087
272, 347, 348, 414, 413, 957, 1091, 1092, 1089
273, 348, 349, 415, 414, 959, 1093, 1094, 1091
274, 349, 350, 416, 415, 961, 1095, 1096, 1093
275, 350, 351, 417, 416, 963, 1097, 1098, 1095
276, 351, 352, 418, 417, 965, 1099, 1100, 1097
277, 352, 353, 419, 418, 967, 1101, 1102, 1099
278, 353, 354, 420, 419, 969, 1103, 1104, 1101
279, 354, 355, 421, 420, 971, 1105, 1106, 1103
280, 355, 356, 422, 421, 973, 1107, 1108, 1105
281, 356, 357, 423, 422, 975, 1109, 1110, 1107
282, 357, 358, 424, 423, 977, 1111, 1112, 1109
283, 358, 359, 425, 424, 979, 1113, 1114, 1111
284, 359, 360, 426, 425, 981, 1115, 1116, 1113
285, 360, 361, 427, 426, 983, 1117, 1118, 1115
286, 361, 362, 428, 427, 985, 1119, 1120, 1117
287, 362, 363, 429, 428, 987, 1121, 1122, 1119
288, 363, 364, 430, 429, 989, 1123, 1124, 1121
289, 364, 365, 431, 430, 991, 1125, 1126, 1123
290, 365, 366, 432, 431, 993, 1127, 1128, 1125
291, 366, 367, 433, 432, 995, 1129, 1130, 1127
292, 367, 368, 434, 433, 997, 1131, 1132, 1129
293, 368, 369, 435, 434, 999, 1133, 1134, 1131
294, 369, 370, 436, 435, 1001, 1135, 1136, 1133
295, 370, 371, 437, 436, 1003, 1137, 1138, 1135
296, 371, 372, 438, 437, 1005, 1139, 1140, 1137
297, 372, 373, 439, 438, 1007, 1141, 1142, 1139
298, 373, 374, 440, 439, 1009, 1143, 1144, 1141
299, 374, 375, 441, 440, 1011, 1145, 1146, 1143
300, 375, 376, 442, 441, 1013, 1147, 1148, 1145
301, 376, 377, 443, 442, 1015, 1149, 1150, 1147
302, 377, 378, 444, 443, 1017, 1151, 1152, 1149
303, 378, 379, 445, 444, 1019, 1153, 1154, 1151
304, 379, 380, 446, 445, 1021, 1155, 1156, 1153
305, 380, 381, 447, 446, 1023, 1157, 1158, 1155
306, 381, 382, 448, 447, 1025, 1159, 1160, 1157
307, 382, 383, 449, 448, 1027, 1161, 1162, 1159
308, 383, 384, 450, 449, 1029, 1163, 1164, 1161
309, 384, 385, 451, 450, 1031, 1165, 1166, 1163
310, 385, 386, 452, 451, 1033, 1167, 1168, 1165
311, 386, 387, 453, 452, 1035, 1169, 1170, 1167
312, 387, 388, 454, 453, 1037, 1171, 1172, 1169
313, 388, 389, 455, 454, 1039, 1173, 1174, 1171
314, 389, 390, 456, 455, 1041, 1175, 1176, 1173
315, 390, 391, 457, 456, 1043, 1177, 1178, 1175
316, 391, 392, 458, 457, 1045, 1179, 1180, 1177
317, 392, 393, 459, 458, 1047, 1181, 1182, 1179
318, 393, 394, 460, 459, 1049, 1183, 1184, 1181
319, 394, 395, 461, 460, 1051, 1185, 1186, 1183
320, 395, 396, 462, 461, 1053, 1187, 1188, 1185
321, 396, 397, 463, 462, 1055, 1189, 1190, 1187
322, 397, 398, 464, 463, 1057, 1191, 1192, 1189
323, 398, 399, 465, 464, 1059, 1193, 1194, 1191
324, 399, 400, 466, 465, 1061, 1195, 1196, 1193
325, 400, 401, 467, 466, 1063, 1197, 1198, 1195
326, 401, 402, 468, 467, 1065, 1199, 1200, 1197
327, 402, 403, 469, 468, 1067, 1201, 1202, 1199
328, 403, 404, 470, 469, 1069, 1203, 1204, 1201
329, 404, 405, 471, 470, 1071, 1205, 1206, 1203
330, 405, 406, 472, 471, 1073, 1207, 1208, 1205
331, 406, 407, 473, 472, 1075, 1209, 1210, 1207
332, 407, 408, 474, 473, 1077, 1211, 1212, 1209
333, 408, 409, 475, 474, 1079, 1213, 1214, 1211
334, 409, 410, 476, 475, 1081, 1215, 1216, 1213
335, 410, 284, 285, 476, 1083, 1217, 1218, 1215
336, 278, 411, 273, 275, 1085, 1219, 1220, 1221
337, 411, 412, 282, 273, 1088, 1222, 1223, 1219
338, 412, 413, 279, 282, 1090, 1224, 1225, 1222
339, 413, 414, 280, 279, 1092, 1226, 1227, 1224
340, 414, 415, 281, 280, 1094, 1228, 1229, 1226
341, 415, 416, 283, 281, 1096, 1230, 1231, 1228
342, 416, 417, 274, 283, 1098, 1232, 1233, 1230
343, 417, 418, 344, 274, 1100, 1234, 1235, 1232
344, 418, 419, 343, 344, 1102, 1236, 1237, 1234
345, 419, 420, 342, 343, 1104, 1238, 1239, 1236
346, 420, 421, 341, 342, 1106, 1240, 1241, 1238
347, 421, 422, 340, 341, 1108, 1242, 1243, 1240
348, 422, 423, 339, 340, 1110, 1244, 1245, 1242
349, 423, 424, 338, 339, 1112, 1246, 1247, 1244
350, 424, 425, 337, 338, 1114, 1248, 1249, 1246
351, 425, 426, 336, 337, 1116, 1250, 1251, 1248
352, 426, 427, 335, 336, 1118, 1252, 1253, 1250
353, 427, 428, 334, 335, 1120, 1254, 1255, 1252
354, 428, 429, 333, 334, 1122, 1256, 1257, 1254
355, 429, 430, 332, 333, 1124, 1258, 1259, 1256
356, 430, 431, 331, 332, 1126, 1260, 1261, 1258
357, 431, 432, 330, 331, 1128, 1262, 1263, 1260
358, 432, 433, 329, 330, 1130, 1264, 1265, 1262
359, 433, 434, 328, 329, 1132, 1266, 1267, 1264
360, 434, 435, 327, 328, 1134, 1268, 1269, 1266
361, 435, 436, 326, 327, 1136, 1270, 1271, 1268
362, 436, 437, 325, 326, 1138, 1272, 1273, 1270
363, 437, 438, 324, 325, 1140, 1274, 1275, 1272
364, 438, 439, 323, 324, 1142, 1276, 1277, 1274
365, 439, 440, 322, 323, 1144, 1278, 1279, 1276
366, 440, 441, 321, 322, 1146, 1280, 1281, 1278
367, 441, 442, 320, 321, 1148, 1282, 1283, 1280
368, 442, 443, 319, 320, 1150, 1284, 1285, 1282
369, 443, 444, 318, 319, 1152, 1286, 1287, 1284
370, 444, 445, 317, 318, 1154, 1288, 1289, 1286
371, 445, 446, 316, 317, 1156, 1290, 1291, 1288
372, 446, 447, 315, 316, 1158, 1292, 1293, 1290
373, 447, 448, 314, 315, 1160, 1294, 1295, 1292
374, 448, 449, 313, 314, 1162, 1296, 1297, 1294
375, 449, 450, 312, 313, 1164, 1298, 1299, 1296
376, 450, 451, 311, 312, 1166, 1300, 1301, 1298
377, 451, 452, 310, 311, 1168, 1302, 1303, 1300
378, 452, 453, 309, 310, 1170, 1304, 1305, 1302
379, 453, 454, 308, 309, 1172, 1306, 1307, 1304
380, 454, 455, 307, 308, 1174, 1308, 1309, 1306
381, 455, 456, 306, 307, 1176, 1310, 1311, 1308
382, 456, 457, 305, 306, 1178, 1312, 1313, 1310
383, 457, 458, 304, 305, 1180, 1314, 1315, 1312
384, 458, 459, 303, 304, 1182, 1316, 1317, 1314
385, 459, 460, 302, 303, 1184, 1318, 1319, 1316
386, 460, 461, 301, 302, 1186, 1320, 1321, 1318
387, 461, 462, 300, 301, 1188, 1322, 1323, 1320
388, 462, 463, 299, 300, 1190, 1324, 1325, 1322
389, 463, 464, 298, 299, 1192, 1326, 1327, 1324
390, 464, 465, 297, 298, 1194, 1328, 1329, 1326
391, 465, 466, 296, 297, 1196, 1330, 1331, 1328
392, 466, 467, 295, 296, 1198, 1332, 1333, 1330
393, 467, 468, 294, 295, 1200, 1334, 1335, 1332
394, 468, 469, 293, 294, 1202, 1336, 1337, 1334
395, 469, 470, 292, 293, 1204, 1338, 1339, 1336
396, 470, 471, 291, 292, 1206, 1340, 1341, 1338
397, 471, 472, 290, 291, 1208, 1342, 1343, 1340
398, 472, 473, 289, 290, 1210, 1344, 1345, 1342
399, 473, 474, 288, 289, 1212, 1346, 1347, 1344
400, 474, 475, 287, 288, 1214, 1348, 1349, 1346
401, 475, 476, 286, 287, 1216, 1350, 1351, 1348
402, 476, 285, 276, 286, 1218, 1352, 1353, 1350
*Element, type=CPE8R, elset=GelVisualization
10202, 68, 67, 345, 277, 676, 949, 950, 951
10203, 67, 66, 346, 345, 673, 952, 953, 949
10204, 66, 65, 347, 346, 670, 954, 955, 952
10205, 65, 64, 348, 347, 667, 956, 957, 954
10206, 64, 63, 349, 348, 664, 958, 959, 956
10207, 63, 62, 350, 349, 661, 960, 961, 958
10208, 62, 61, 351, 350, 658, 962, 963, 960
10209, 61, 60, 352, 351, 655, 964, 965, 962
10210, 60, 59, 353, 352, 652, 966, 967, 964
10211, 59, 58, 354, 353, 649, 968, 969, 966
10212, 58, 57, 355, 354, 646, 970, 971, 968
10213, 57, 56, 356, 355, 643, 972, 973, 970
10214, 56, 55, 357, 356, 640, 974, 975, 972
10215, 55, 54, 358, 357, 637, 976, 977, 974
10216, 54, 53, 359, 358, 634, 978, 979, 976
10217, 53, 52, 360, 359, 631, 980, 981, 978
10218, 52, 51, 361, 360, 628, 982, 983, 980
10219, 51, 50, 362, 361, 625, 984, 985, 982
10220, 50, 49, 363, 362, 622, 986, 987, 984
10221, 49, 48, 364, 363, 619, 988, 989, 986
10222, 48, 47, 365, 364, 616, 990, 991, 988
10223, 47, 46, 366, 365, 613, 992, 993, 990
10224, 46, 45, 367, 366, 610, 994, 995, 992
10225, 45, 44, 368, 367, 607, 996, 997, 994
10226, 44, 43, 369, 368, 604, 998, 999, 996
10227, 43, 42, 370, 369, 601, 1000, 1001, 998
10228, 42, 41, 371, 370, 598, 1002, 1003, 1000
10229, 41, 40, 372, 371, 595, 1004, 1005, 1002
10230, 40, 39, 373, 372, 592, 1006, 1007, 1004
10231, 39, 38, 374, 373, 589, 1008, 1009, 1006
10232, 38, 37, 375, 374, 586, 1010, 1011, 1008
10233, 37, 36, 376, 375, 583, 1012, 1013, 1010
10234, 36, 35, 377, 376, 580, 1014, 1015, 1012
10235, 35, 34, 378, 377, 577, 1016, 1017, 1014
10236, 34, 33, 379, 378, 574, 1018, 1019, 1016
10237, 33, 32, 380, 379, 571, 1020, 1021, 1018
10238, 32, 31, 381, 380, 568, 1022, 1023, 1020
10239, 31, 30, 382, 381, 565, 1024, 1025, 1022
10240, 30, 29, 383, 382, 562, 1026, 1027, 1024
10241, 29, 28, 384, 383, 559, 1028, 1029, 1026
10242, 28, 27, 385, 384, 556, 1030, 1031, 1028
10243, 27, 26, 386, 385, 553, 1032, 1033, 1030
10244, 26, 25, 387, 386, 550, 1034, 1035, 1032
10245, 25, 24, 388, 387, 547, 1036, 1037, 1034
10246, 24, 23, 389, 388, 544, 1038, 1039, 1036
10247, 23, 22, 390, 389, 541, 1040, 1041, 1038
10248, 22, 21, 391, 390, 538, 1042, 1043, 1040
10249, 21, 20, 392, 391, 535, 1044, 1045, 1042
10250, 20, 19, 393, 392, 532, 1046, 1047, 1044
10251, 19, 18, 394, 393, 529, 1048, 1049, 1046
10252, 18, 17, 395, 394, 526, 1050, 1051, 1048
10253, 17, 16, 396, 395, 523, 1052, 1053, 1050
10254, 16, 15, 397, 396, 520, 1054, 1055, 1052
10255, 15, 14, 398, 397, 517, 1056, 1057, 1054
10256, 14, 13, 399, 398, 514, 1058, 1059, 1056
10257, 13, 12, 400, 399, 511, 1060, 1061, 1058
10258, 12, 11, 401, 400, 508, 1062, 1063, 1060
10259, 11, 10, 402, 401, 505, 1064, 1065, 1062
10260, 10, 9, 403, 402, 502, 1066, 1067, 1064
10261, 9, 8, 404, 403, 499, 1068, 1069, 1066
10262, 8, 7, 405, 404, 496, 1070, 1071, 1068
10263, 7, 6, 406, 405, 493, 1072, 1073, 1070
10264, 6, 5, 407, 406, 490, 1074, 1075, 1072
10265, 5, 4, 408, 407, 487, 1076, 1077, 1074
10266, 4, 3, 409, 408, 484, 1078, 1079, 1076
10267, 3, 2, 410, 409, 481, 1080, 1081, 1078
10268, 2, 1, 284, 410, 477, 1082, 1083, 1080
10269, 277, 345, 411, 278, 950, 1084, 1085, 1086
10270, 345, 346, 412, 411, 953, 1087, 1088, 1084
10271, 346, 347, 413, 412, 955, 1089, 1090, 1087
10272, 347, 348, 414, 413, 957, 1091, 1092, 1089
10273, 348, 349, 415, 414, 959, 1093, 1094, 1091
10274, 349, 350, 416, 415, 961, 1095, 1096, 1093
10275, 350, 351, 417, 416, 963, 1097, 1098, 1095
10276, 351, 352, 418, 417, 965, 1099, 1100, 1097
10277, 352, 353, 419, 418, 967, 1101, 1102, 1099
10278, 353, 354, 420, 419, 969, 1103, 1104, 1101
10279, 354, 355, 421, 420, 971, 1105, 1106, 1103
10280, 355, 356, 422, 421, 973, 1107, 1108, 1105
10281, 356, 357, 423, 422, 975, 1109, 1110, 1107
10282, 357, 358, 424, 423, 977, 1111, 1112, 1109
10283, 358, 359, 425, 424, 979, 1113, 1114, 1111
10284, 359, 360, 426, 425, 981, 1115, 1116, 1113
10285, 360, 361, 427, 426, 983, 1117, 1118, 1115
10286, 361, 362, 428, 427, 985, 1119, 1120, 1117
10287, 362, 363, 429, 428, 987, 1121, 1122, 1119
10288, 363, 364, 430, 429, 989, 1123, 1124, 1121
10289, 364, 365, 431, 430, 991, 1125, 1126, 1123
10290, 365, 366, 432, 431, 993, 1127, 1128, 1125
10291, 366, 367, 433, 432, 995, 1129, 1130, 1127
10292, 367, 368, 434, 433, 997, 1131, 1132, 1129
10293, 368, 369, 435, 434, 999, 1133, 1134, 1131
10294, 369, 370, 436, 435, 1001, 1135, 1136, 1133
10295, 370, 371, 437, 436, 1003, 1137, 1138, 1135
10296, 371, 372, 438, 437, 1005, 1139, 1140, 1137
10297, 372, 373, 439, 438, 1007, 1141, 1142, 1139
10298, 373, 374, 440, 439, 1009, 1143, 1144, 1141
10299, 374, 375, 441, 440, 1011, 1145, 1146, 1143
10300, 375, 376, 442, 441, 1013, 1147, 1148, 1145
10301, 376, 377, 443, 442, 1015, 1149, 1150, 1147
10302, 377, 378, 444, 443, 1017, 1151, 1152, 1149
10303, 378, 379, 445, 444, 1019, 1153, 1154, 1151
10304, 379, 380, 446, 445, 1021, 1155, 1156, 1153
10305, 380, 381, 447, 446, 1023, 1157, 1158, 1155
10306, 381, 382, 448, 447, 1025, 1159, 1160, 1157
10307, 382, 383, 449, 448, 1027, 1161, 1162, 1159
10308, 383, 384, 450, 449, 1029, 1163, 1164, 1161
10309, 384, 385, 451, 450, 1031, 1165, 1166, 1163
10310, 385, 386, 452, 451, 1033, 1167, 1168, 1165
10311, 386, 387, 453, 452, 1035, 1169, 1170, 1167
10312, 387, 388, 454, 453, 1037, 1171, 1172, 1169
10313, 388, 389, 455, 454, 1039, 1173, 1174, 1171
10314, 389, 390, 456, 455, 1041, 1175, 1176, 1173
10315, 390, 391, 457, 456, 1043, 1177, 1178, 1175
10316, 391, 392, 458, 457, 1045, 1179, 1180, 1177
10317, 392, 393, 459, 458, 1047, 1181, 1182, 1179
10318, 393, 394, 460, 459, 1049, 1183, 1184, 1181
10319, 394, 395, 461, 460, 1051, 1185, 1186, 1183
10320, 395, 396, 462, 461, 1053, 1187, 1188, 1185
10321, 396, 397, 463, 462, 1055, 1189, 1190, 1187
10322, 397, 398, 464, 463, 1057, 1191, 1192, 1189
10323, 398, 399, 465, 464, 1059, 1193, 1194, 1191
10324, 399, 400, 466, 465, 1061, 1195, 1196, 1193
10325, 400, 401, 467, 466, 1063, 1197, 1198, 1195
10326, 401, 402, 468, 467, 1065, 1199, 1200, 1197
10327, 402, 403, 469, 468, 1067, 1201, 1202, 1199
10328, 403, 404, 470, 469, 1069, 1203, 1204, 1201
10329, 404, 405, 471, 470, 1071, 1205, 1206, 1203
10330, 405, 406, 472, 471, 1073, 1207, 1208, 1205
10331, 406, 407, 473, 472, 1075, 1209, 1210, 1207
10332, 407, 408, 474, 473, 1077, 1211, 1212, 1209
10333, 408, 409, 475, 474, 1079, 1213, 1214, 1211
10334, 409, 410, 476, 475, 1081, 1215, 1216, 1213
10335, 410, 284, 285, 476, 1083, 1217, 1218, 1215
10336, 278, 411, 273, 275, 1085, 1219, 1220, 1221
10337, 411, 412, 282, 273, 1088, 1222, 1223, 1219
10338, 412, 413, 279, 282, 1090, 1224, 1225, 1222
10339, 413, 414, 280, 279, 1092, 1226, 1227, 1224
10340, 414, 415, 281, 280, 1094, 1228, 1229, 1226
10341, 415, 416, 283, 281, 1096, 1230, 1231, 1228
10342, 416, 417, 274, 283, 1098, 1232, 1233, 1230
10343, 417, 418, 344, 274, 1100, 1234, 1235, 1232
10344, 418, 419, 343, 344, 1102, 1236, 1237, 1234
10345, 419, 420, 342, 343, 1104, 1238, 1239, 1236
10346, 420, 421, 341, 342, 1106, 1240, 1241, 1238
10347, 421, 422, 340, 341, 1108, 1242, 1243, 1240
10348, 422, 423, 339, 340, 1110, 1244, 1245, 1242
10349, 423, 424, 338, 339, 1112, 1246, 1247, 1244
10350, 424, 425, 337, 338, 1114, 1248, 1249, 1246
10351, 425, 426, 336, 337, 1116, 1250, 1251, 1248
10352, 426, 427, 335, 336, 1118, 1252, 1253, 1250
10353, 427, 428, 334, 335, 1120, 1254, 1255, 1252
10354, 428, 429, 333, 334, 1122, 1256, 1257, 1254
10355, 429, 430, 332, 333, 1124, 1258, 1259, 1256
10356, 430, 431, 331, 332, 1126, 1260, 1261, 1258
10357, 431, 432, 330, 331, 1128, 1262, 1263, 1260
10358, 432, 433, 329, 330, 1130, 1264, 1265, 1262
10359, 433, 434, 328, 329, 1132, 1266, 1267, 1264
10360, 434, 435, 327, 328, 1134, 1268, 1269, 1266
10361, 435, 436, 326, 327, 1136, 1270, 1271, 1268
10362, 436, 437, 325, 326, 1138, 1272, 1273, 1270
10363, 437, 438, 324, 325, 1140, 1274, 1275, 1272
10364, 438, 439, 323, 324, 1142, 1276, 1277, 1274
10365, 439, 440, 322, 323, 1144, 1278, 1279, 1276
10366, 440, 441, 321, 322, 1146, 1280, 1281, 1278
10367, 441, 442, 320, 321, 1148, 1282, 1283, 1280
10368, 442, 443, 319, 320, 1150, 1284, 1285, 1282
10369, 443, 444, 318, 319, 1152, 1286, 1287, 1284
10370, 444, 445, 317, 318, 1154, 1288, 1289, 1286
10371, 445, 446, 316, 317, 1156, 1290, 1291, 1288
10372, 446, 447, 315, 316, 1158, 1292, 1293, 1290
10373, 447, 448, 314, 315, 1160, 1294, 1295, 1292
10374, 448, 449, 313, 314, 1162, 1296, 1297, 1294
10375, 449, 450, 312, 313, 1164, 1298, 1299, 1296
10376, 450, 451, 311, 312, 1166, 1300, 1301, 1298
10377, 451, 452, 310, 311, 1168, 1302, 1303, 1300
10378, 452, 453, 309, 310, 1170, 1304, 1305, 1302
10379, 453, 454, 308, 309, 1172, 1306, 1307, 1304
10380, 454, 455, 307, 308, 1174, 1308, 1309, 1306
10381, 455, 456, 306, 307, 1176, 1310, 1311, 1308
10382, 456, 457, 305, 306, 1178, 1312, 1313, 1310
10383, 457, 458, 304, 305, 1180, 1314, 1315, 1312
10384, 458, 459, 303, 304, 1182, 1316, 1317, 1314
10385, 459, 460, 302, 303, 1184, 1318, 1319, 1316
10386, 460, 461, 301, 302, 1186, 1320, 1321, 1318
10387, 461, 462, 300, 301, 1188, 1322, 1323, 1320
10388, 462, 463, 299, 300, 1190, 1324, 1325, 1322
10389, 463, 464, 298, 299, 1192, 1326, 1327, 1324
10390, 464, 465, 297, 298, 1194, 1328, 1329, 1326
10391, 465, 466, 296, 297, 1196, 1330, 1331, 1328
10392, 466, 467, 295, 296, 1198, 1332, 1333, 1330
10393, 467, 468, 294, 295, 1200, 1334, 1335, 1332
10394, 468, 469, 293, 294, 1202, 1336, 1337, 1334
10395, 469, 470, 292, 293, 1204, 1338, 1339, 1336
10396, 470, 471, 291, 292, 1206, 1340, 1341, 1338
10397, 471, 472, 290, 291, 1208, 1342, 1343, 1340
10398, 472, 473, 289, 290, 1210, 1344, 1345, 1342
10399, 473, 474, 288, 289, 1212, 1346, 1347, 1344
10400, 474, 475, 287, 288, 1214, 1348, 1349, 1346
10401, 475, 476, 286, 287, 1216, 1350, 1351, 1348
10402, 476, 285, 276, 286, 1218, 1352, 1353, 1350
*Nset, nset=RubberSet
       1,        2,        3,        4,        5,        6,        7,        8,        9,       10,       11,       12,       13,       14,       15,       16
      17,       18,       19,       20,       21,       22,       23,       24,       25,       26,       27,       28,       29,       30,       31,       32
      33,       34,       35,       36,       37,       38,       39,       40,       41,       42,       43,       44,       45,       46,       47,       48
      49,       50,       51,       52,       53,       54,       55,       56,       57,       58,       59,       60,       61,       62,       63,       64
      65,       66,       67,       68,       69,       70,       71,       72,       73,       74,       75,       76,       77,       78,       79,       80
      81,       82,       83,       84,       85,       86,       87,       88,       89,       90,       91,       92,       93,       94,       95,       96
      97,       98,       99,      100,      101,      102,      103,      104,      105,      106,      107,      108,      109,      110,      111,      112
     113,      114,      115,      116,      117,      118,      119,      120,      121,      122,      123,      124,      125,      126,      127,      128
     129,      130,      131,      132,      133,      134,      135,      136,      137,      138,      139,      140,      141,      142,      143,      144
     145,      146,      147,      148,      149,      150,      151,      152,      153,      154,      155,      156,      157,      158,      159,      160
     161,      162,      163,      164,      165,      166,      167,      168,      169,      170,      171,      172,      173,      174,      175,      176
     177,      178,      179,      180,      181,      182,      183,      184,      185,      186,      187,      188,      189,      190,      191,      192
     193,      194,      195,      196,      197,      198,      199,      200,      201,      202,      203,      204,      205,      206,      207,      208
     209,      210,      211,      212,      213,      214,      215,      216,      217,      218,      219,      220,      221,      222,      223,      224
     225,      226,      227,      228,      229,      230,      231,      232,      233,      234,      235,      236,      237,      238,      239,      240
     241,      242,      243,      244,      245,      246,      247,      248,      249,      250,      251,      252,      253,      254,      255,      256
     257,      258,      259,      260,      261,      262,      263,      264,      265,      266,      267,      268,      269,      270,      271,      272
     477,      478,      479,      480,      481,      482,      483,      484,      485,      486,      487,      488,      489,      490,      491,      492
     493,      494,      495,      496,      497,      498,      499,      500,      501,      502,      503,      504,      505,      506,      507,      508
     509,      510,      511,      512,      513,      514,      515,      516,      517,      518,      519,      520,      521,      522,      523,      524
     525,      526,      527,      528,      529,      530,      531,      532,      533,      534,      535,      536,      537,      538,      539,      540
     541,      542,      543,      544,      545,      546,      547,      548,      549,      550,      551,      552,      553,      554,      555,      556
     557,      558,      559,      560,      561,      562,      563,      564,      565,      566,      567,      568,      569,      570,      571,      572
     573,      574,      575,      576,      577,      578,      579,      580,      581,      582,      583,      584,      585,      586,      587,      588
     589,      590,      591,      592,      593,      594,      595,      596,      597,      598,      599,      600,      601,      602,      603,      604
     605,      606,      607,      608,      609,      610,      611,      612,      613,      614,      615,      616,      617,      618,      619,      620
     621,      622,      623,      624,      625,      626,      627,      628,      629,      630,      631,      632,      633,      634,      635,      636
     637,      638,      639,      640,      641,      642,      643,      644,      645,      646,      647,      648,      649,      650,      651,      652
     653,      654,      655,      656,      657,      658,      659,      660,      661,      662,      663,      664,      665,      666,      667,      668
     669,      670,      671,      672,      673,      674,      675,      676,      677,      678,      679,      680,      681,      682,      683,      684
     685,      686,      687,      688,      689,      690,      691,      692,      693,      694,      695,      696,      697,      698,      699,      700
     701,      702,      703,      704,      705,      706,      707,      708,      709,      710,      711,      712,      713,      714,      715,      716
     717,      718,      719,      720,      721,      722,      723,      724,      725,      726,      727,      728,      729,      730,      731,      732
     733,      734,      735,      736,      737,      738,      739,      740,      741,      742,      743,      744,      745,      746,      747,      748
     749,      750,      751,      752,      753,      754,      755,      756,      757,      758,      759,      760,      761,      762,      763,      764
     765,      766,      767,      768,      769,      770,      771,      772,      773,      774,      775,      776,      777,      778,      779,      780
     781,      782,      783,      784,      785,      786,      787,      788,      789,      790,      791,      792,      793,      794,      795,      796
     797,      798,      799,      800,      801,      802,      803,      804,      805,      806,      807,      808,      809,      810,      811,      812
     813,      814,      815,      816,      817,      818,      819,      820,      821,      822,      823,      824,      825,      826,      827,      828
     829,      830,      831,      832,      833,      834,      835,      836,      837,      838,      839,      840,      841,      842,      843,      844
     845,      846,      847,      848,      849,      850,      851,      852,      853,      854,      855,      856,      857,      858,      859,      860
     861,      862,      863,      864,      865,      866,      867,      868,      869,      870,      871,      872,      873,      874,      875,      876
     877,      878,      879,      880,      881,      882,      883,      884,      885,      886,      887,      888,      889,      890,      891,      892
     893,      894,      895,      896,      897,      898,      899,      900,      901,      902,      903,      904,      905,      906,      907,      908
     909,      910,      911,      912,      913,      914,      915,      916,      917,      918,      919,      920,      921,      922,      923,      924
     925,      926,      927,      928,      929,      930,      931,      932,      933,      934,      935,      936,      937,      938,      939,      940
     941,      942,      943,      944,      945,      946,      947,      948
*Elset, elset=RubberSet
       1,        2,        3,        4,        5,        6,        7,        8,        9,       10,       11,       12,       13,       14,       15,       16
      17,       18,       19,       20,       21,       22,       23,       24,       25,       26,       27,       28,       29,       30,       31,       32
      33,       34,       35,       36,       37,       38,       39,       40,       41,       42,       43,       44,       45,       46,       47,       48
      49,       50,       51,       52,       53,       54,       55,       56,       57,       58,       59,       60,       61,       62,       63,       64
      65,       66,       67,       68,       69,       70,       71,       72,       73,       74,       75,       76,       77,       78,       79,       80
      81,       82,       83,       84,       85,       86,       87,       88,       89,       90,       91,       92,       93,       94,       95,       96
      97,       98,       99,      100,      101,      102,      103,      104,      105,      106,      107,      108,      109,      110,      111,      112
     113,      114,      115,      116,      117,      118,      119,      120,      121,      122,      123,      124,      125,      126,      127,      128
     129,      130,      131,      132,      133,      134,      135,      136,      137,      138,      139,      140,      141,      142,      143,      144
     145,      146,      147,      148,      149,      150,      151,      152,      153,      154,      155,      156,      157,      158,      159,      160
     161,      162,      163,      164,      165,      166,      167,      168,      169,      170,      171,      172,      173,      174,      175,      176
     177,      178,      179,      180,      181,      182,      183,      184,      185,      186,      187,      188,      189,      190,      191,      192
     193,      194,      195,      196,      197,      198,      199,      200,      201
*Nset, nset=GelSet
       1,        2,        3,        4,        5,        6,        7,        8,        9,       10,       11,       12,       13,       14,       15,       16
      17,       18,       19,       20,       21,       22,       23,       24,       25,       26,       27,       28,       29,       30,       31,       32
      33,       34,       35,       36,       37,       38,       39,       40,       41,       42,       43,       44,       45,       46,       47,       48
      49,       50,       51,       52,       53,       54,       55,       56,       57,       58,       59,       60,       61,       62,       63,       64
      65,       66,       67,       68,      273,      274,      275,      276,      277,      278,      279,      280,      281,      282,      283,      284
     285,      286,      287,      288,      289,      290,      291,      292,      293,      294,      295,      296,      297,      298,      299,      300
     301,      302,      303,      304,      305,      306,      307,      308,      309,      310,      311,      312,      313,      314,      315,      316
     317,      318,      319,      320,      321,      322,      323,      324,      325,      326,      327,      328,      329,      330,      331,      332
     333,      334,      335,      336,      337,      338,      339,      340,      341,      342,      343,      344,      345,      346,      347,      348
     349,      350,      351,      352,      353,      354,      355,      356,      357,      358,      359,      360,      361,      362,      363,      364
     365,      366,      367,      368,      369,      370,      371,      372,      373,      374,      375,      376,      377,      378,      379,      380
     381,      382,      383,      384,      385,      386,      387,      388,      389,      390,      391,      392,      393,      394,      395,      396
     397,      398,      399,      400,      401,      402,      403,      404,      405,      406,      407,      408,      409,      410,      411,      412
     413,      414,      415,      416,      417,      418,      419,      420,      421,      422,      423,      424,      425,      426,      427,      428
     429,      430,      431,      432,      433,      434,      435,      436,      437,      438,      439,      440,      441,      442,      443,      444
     445,      446,      447,      448,      449,      450,      451,      452,      453,      454,      455,      456,      457,      458,      459,      460
     461,      462,      463,      464,      465,      466,      467,      468,      469,      470,      471,      472,      473,      474,      475,      476
     477,      481,      484,      487,      490,      493,      496,      499,      502,      505,      508,      511,      514,      517,      520,      523
     526,      529,      532,      535,      538,      541,      544,      547,      550,      553,      556,      559,      562,      565,      568,      571
     574,      577,      580,      583,      586,      589,      592,      595,      598,      601,      604,      607,      610,      613,      616,      619
     622,      625,      628,      631,      634,      637,      640,      643,      646,      649,      652,      655,      658,      661,      664,      667
     670,      673,      676,      949,      950,      951,      952,      953,      954,      955,      956,      957,      958,      959,      960,      961
     962,      963,      964,      965,      966,      967,      968,      969,      970,      971,      972,      973,      974,      975,      976,      977
     978,      979,      980,      981,      982,      983,      984,      985,      986,      987,      988,      989,      990,      991,      992,      993
     994,      995,      996,      997,      998,      999,     1000,     1001,     1002,     1003,     1004,     1005,     1006,     1007,     1008,     1009
    1010,     1011,     1012,     1013,     1014,     1015,     1016,     1017,     1018,     1019,     1020,     1021,     1022,     1023,     1024,     1025
    1026,     1027,     1028,     1029,     1030,     1031,     1032,     1033,     1034,     1035,     1036,     1037,     1038,     1039,     1040,     1041
    1042,     1043,     1044,     1045,     1046,     1047,     1048,     1049,     1050,     1051,     1052,     1053,     1054,     1055,     1056,     1057
    1058,     1059,     1060,     1061,     1062,     1063,     1064,     1065,     1066,     1067,     1068,     1069,     1070,     1071,     1072,     1073
    1074,     1075,     1076,     1077,     1078,     1079,     1080,     1081,     1082,     1083,     1084,     1085,     1086,     1087,     1088,     1089
    1090,     1091,     1092,     1093,     1094,     1095,     1096,     1097,     1098,     1099,     1100,     1101,     1102,     1103,     1104,     1105
    1106,     1107,     1108,     1109,     1110,     1111,     1112,     1113,     1114,     1115,     1116,     1117,     1118,     1119,     1120,     1121
    1122,     1123,     1124,     1125,     1126,     1127,     1128,     1129,     1130,     1131,     1132,     1133,     1134,     1135,     1136,     1137
    1138,     1139,     1140,     1141,     1142,     1143,     1144,     1145,     1146,     1147,     1148,     1149,     1150,     1151,     1152,     1153
    1154,     1155,     1156,     1157,     1158,     1159,     1160,     1161,     1162,     1163,     1164,     1165,     1166,     1167,     1168,     1169
    1170,     1171,     1172,     1173,     1174,     1175,     1176,     1177,     1178,     1179,     1180,     1181,     1182,     1183,     1184,     1185
    1186,     1187,     1188,     1189,     1190,     1191,     1192,     1193,     1194,     1195,     1196,     1197,     1198,     1199,     1200,     1201
    1202,     1203,     1204,     1205,     1206,     1207,     1208,     1209,     1210,     1211,     1212,     1213,     1214,     1215,     1216,     1217
    1218,     1219,     1220,     1221,     1222,     1223,     1224,     1225,     1226,     1227,     1228,     1229,     1230,     1231,     1232,     1233
    1234,     1235,     1236,     1237,     1238,     1239,     1240,     1241,     1242,     1243,     1244,     1245,     1246,     1247,     1248,     1249
    1250,     1251,     1252,     1253,     1254,     1255,     1256,     1257,     1258,     1259,     1260,     1261,     1262,     1263,     1264,     1265
    1266,     1267,     1268,     1269,     1270,     1271,     1272,     1273,     1274,     1275,     1276,     1277,     1278,     1279,     1280,     1281
    1282,     1283,     1284,     1285,     1286,     1287,     1288,     1289,     1290,     1291,     1292,     1293,     1294,     1295,     1296,     1297
    1298,     1299,     1300,     1301,     1302,     1303,     1304,     1305,     1306,     1307,     1308,     1309,     1310,     1311,     1312,     1313
    1314,     1315,     1316,     1317,     1318,     1319,     1320,     1321,     1322,     1323,     1324,     1325,     1326,     1327,     1328,     1329
    1330,     1331,     1332,     1333,     1334,     1335,     1336,     1337,     1338,     1339,     1340,     1341,     1342,     1343,     1344,     1345
    1346,     1347,     1348,     1349,     1350,     1351,     1352,     1353
*Elset, elset=GelSet
     202,      203,      204,      205,      206,      207,      208,      209,      210,      211,      212,      213,      214,      215,      216,      217
     218,      219,      220,      221,      222,      223,      224,      225,      226,      227,      228,      229,      230,      231,      232,      233
     234,      235,      236,      237,      238,      239,      240,      241,      242,      243,      244,      245,      246,      247,      248,      249
     250,      251,      252,      253,      254,      255,      256,      257,      258,      259,      260,      261,      262,      263,      264,      265
     266,      267,      268,      269,      270,      271,      272,      273,      274,      275,      276,      277,      278,      279,      280,      281
     282,      283,      284,      285,      286,      287,      288,      289,      290,      291,      292,      293,      294,      295,      296,      297
     298,      299,      300,      301,      302,      303,      304,      305,      306,      307,      308,      309,      310,      311,      312,      313
     314,      315,      316,      317,      318,      319,      320,      321,      322,      323,      324,      325,      326,      327,      328,      329
     330,      331,      332,      333,      334,      335,      336,      337,      338,      339,      340,      341,      342,      343,      344,      345
     346,      347,      348,      349,      350,      351,      352,      353,      354,      355,      356,      357,      358,      359,      360,      361
     362,      363,      364,      365,      366,      367,      368,      369,      370,      371,      372,      373,      374,      375,      376,      377
     378,      379,      380,      381,      382,      383,      384,      385,      386,      387,      388,      389,      390,      391,      392,      393
     394,      395,      396,      397,      398,      399,      400,      401,      402
*Nset, nset=Nall
       1,        2,        3,        4,        5,        6,        7,        8,        9,       10,       11,       12,       13,       14,       15,       16
      17,       18,       19,       20,       21,       22,       23,       24,       25,       26,       27,       28,       29,       30,       31,       32
      33,       34,       35,       36,       37,       38,       39,       40,       41,       42,       43,       44,       45,       46,       47,       48
      49,       50,       51,       52,       53,       54,       55,       56,       57,       58,       59,       60,       61,       62,       63,       64
      65,       66,       67,       68,       69,       70,       71,       72,       73,       74,       75,       76,       77,       78,       79,       80
      81,       82,       83,       84,       85,       86,       87,       88,       89,       90,       91,       92,       93,       94,       95,       96
      97,       98,       99,      100,      101,      102,      103,      104,      105,      106,      107,      108,      109,      110,      111,      112
     113,      114,      115,      116,      117,      118,      119,      120,      121,      122,      123,      124,      125,      126,      127,      128
     129,      130,      131,      132,      133,      134,      135,      136,      137,      138,      139,      140,      141,      142,      143,      144
     145,      146,      147,      148,      149,      150,      151,      152,      153,      154,      155,      156,      157,      158,      159,      160
     161,      162,      163,      164,      165,      166,      167,      168,      169,      170,      171,      172,      173,      174,      175,      176
     177,      178,      179,      180,      181,      182,      183,      184,      185,      186,      187,      188,      189,      190,      191,      192
     193,      194,      195,      196,      197,      198,      199,      200,      201,      202,      203,      204,      205,      206,      207,      208
     209,      210,      211,      212,      213,      214,      215,      216,      217,      218,      219,      220,      221,      222,      223,      224
     225,      226,      227,      228,      229,      230,      231,      232,      233,      234,      235,      236,      237,      238,      239,      240
     241,      242,      243,      244,      245,      246,      247,      248,      249,      250,      251,      252,      253,      254,      255,      256
     257,      258,      259,      260,      261,      262,      263,      264,      265,      266,      267,      268,      269,      270,      271,      272
     273,      274,      275,      276,      277,      278,      279,      280,      281,      282,      283,      284,      285,      286,      287,      288
     289,      290,      291,      292,      293,      294,      295,      296,      297,      298,      299,      300,      301,      302,      303,      304
     305,      306,      307,      308,      309,      310,      311,      312,      313,      314,      315,      316,      317,      318,      319,      320
     321,      322,      323,      324,      325,      326,      327,      328,      329,      330,      331,      332,      333,      334,      335,      336
     337,      338,      339,      340,      341,      342,      343,      344,      345,      346,      347,      348,      349,      350,      351,      352
     353,      354,      355,      356,      357,      358,      359,      360,      361,      362,      363,      364,      365,      366,      367,      368
     369,      370,      371,      372,      373,      374,      375,      376,      377,      378,      379,      380,      381,      382,      383,      384
     385,      386,      387,      388,      389,      390,      391,      392,      393,      394,      395,      396,      397,      398,      399,      400
     401,      402,      403,      404,      405,      406,      407,      408,      409,      410,      411,      412,      413,      414,      415,      416
     417,      418,      419,      420,      421,      422,      423,      424,      425,      426,      427,      428,      429,      430,      431,      432
     433,      434,      435,      436,      437,      438,      439,      440,      441,      442,      443,      444,      445,      446,      447,      448
     449,      450,      451,      452,      453,      454,      455,      456,      457,      458,      459,      460,      461,      462,      463,      464
     465,      466,      467,      468,      469,      470,      471,      472,      473,      474,      475,      476,      477,      478,      479,      480
     481,      482,      483,      484,      485,      486,      487,      488,      489,      490,      491,      492,      493,      494,      495,      496
     497,      498,      499,      500,      501,      502,      503,      504,      505,      506,      507,      508,      509,      510,      511,      512
     513,      514,      515,      516,      517,      518,      519,      520,      521,      522,      523,      524,      525,      526,      527,      528
     529,      530,      531,      532,      533,      534,      535,      536,      537,      538,      539,      540,      541,      542,      543,      544
     545,      546,      547,      548,      549,      550,      551,      552,      553,      554,      555,      556,      557,      558,      559,      560
     561,      562,      563,      564,      565,      566,      567,      568,      569,      570,      571,      572,      573,      574,      575,      576
     577,      578,      579,      580,      581,      582,      583,      584,      585,      586,      587,      588,      589,      590,      591,      592
     593,      594,      595,      596,      597,      598,      599,      600,      601,      602,      603,      604,      605,      606,      607,      608
     609,      610,      611,      612,      613,      614,      615,      616,      617,      618,      619,      620,      621,      622,      623,      624
     625,      626,      627,      628,      629,      630,      631,      632,      633,      634,      635,      636,      637,      638,      639,      640
     641,      642,      643,      644,      645,      646,      647,      648,      649,      650,      651,      652,      653,      654,      655,      656
     657,      658,      659,      660,      661,      662,      663,      664,      665,      666,      667,      668,      669,      670,      671,      672
     673,      674,      675,      676,      677,      678,      679,      680,      681,      682,      683,      684,      685,      686,      687,      688
     689,      690,      691,      692,      693,      694,      695,      696,      697,      698,      699,      700,      701,      702,      703,      704
     705,      706,      707,      708,      709,      710,      711,      712,      713,      714,      715,      716,      717,      718,      719,      720
     721,      722,      723,      724,      725,      726,      727,      728,      729,      730,      731,      732,      733,      734,      735,      736
     737,      738,      739,      740,      741,      742,      743,      744,      745,      746,      747,      748,      749,      750,      751,      752
     753,      754,      755,      756,      757,      758,      759,      760,      761,      762,      763,      764,      765,      766,      767,      768
     769,      770,      771,      772,      773,      774,      775,      776,      777,      778,      779,      780,      781,      782,      783,      784
     785,      786,      787,      788,      789,      790,      791,      792,      793,      794,      795,      796,      797,      798,      799,      800
     801,      802,      803,      804,      805,      806,      807,      808,      809,      810,      811,      812,      813,      814,      815,      816
     817,      818,      819,      820,      821,      822,      823,      824,      825,      826,      827,      828,      829,      830,      831,      832
     833,      834,      835,      836,      837,      838,      839,      840,      841,      842,      843,      844,      845,      846,      847,      848
     849,      850,      851,      852,      853,      854,      855,      856,      857,      858,      859,      860,      861,      862,      863,      864
     865,      866,      867,      868,      869,      870,      871,      872,      873,      874,      875,      876,      877,      878,      879,      880
     881,      882,      883,      884,      885,      886,      887,      888,      889,      890,      891,      892,      893,      894,      895,      896
     897,      898,      899,      900,      901,      902,      903,      904,      905,      906,      907,      908,      909,      910,      911,      912
     913,      914,      915,      916,      917,      918,      919,      920,      921,      922,      923,      924,      925,      926,      927,      928
     929,      930,      931,      932,      933,      934,      935,      936,      937,      938,      939,      940,      941,      942,      943,      944
     945,      946,      947,      948,      949,      950,      951,      952,      953,      954,      955,      956,      957,      958,      959,      960
     961,      962,      963,      964,      965,      966,      967,      968,      969,      970,      971,      972,      973,      974,      975,      976
     977,      978,      979,      980,      981,      982,      983,      984,      985,      986,      987,      988,      989,      990,      991,      992
     993,      994,      995,      996,      997,      998,      999,     1000,     1001,     1002,     1003,     1004,     1005,     1006,     1007,     1008
    1009,     1010,     1011,     1012,     1013,     1014,     1015,     1016,     1017,     1018,     1019,     1020,     1021,     1022,     1023,     1024
    1025,     1026,     1027,     1028,     1029,     1030,     1031,     1032,     1033,     1034,     1035,     1036,     1037,     1038,     1039,     1040
    1041,     1042,     1043,     1044,     1045,     1046,     1047,     1048,     1049,     1050,     1051,     1052,     1053,     1054,     1055,     1056
    1057,     1058,     1059,     1060,     1061,     1062,     1063,     1064,     1065,     1066,     1067,     1068,     1069,     1070,     1071,     1072
    1073,     1074,     1075,     1076,     1077,     1078,     1079,     1080,     1081,     1082,     1083,     1084,     1085,     1086,     1087,     1088
    1089,     1090,     1091,     1092,     1093,     1094,     1095,     1096,     1097,     1098,     1099,     1100,     1101,     1102,     1103,     1104
    1105,     1106,     1107,     1108,     1109,     1110,     1111,     1112,     1113,     1114,     1115,     1116,     1117,     1118,     1119,     1120
    1121,     1122,     1123,     1124,     1125,     1126,     1127,     1128,     1129,     1130,     1131,     1132,     1133,     1134,     1135,     1136
    1137,     1138,     1139,     1140,     1141,     1142,     1143,     1144,     1145,     1146,     1147,     1148,     1149,     1150,     1151,     1152
    1153,     1154,     1155,     1156,     1157,     1158,     1159,     1160,     1161,     1162,     1163,     1164,     1165,     1166,     1167,     1168
    1169,     1170,     1171,     1172,     1173,     1174,     1175,     1176,     1177,     1178,     1179,     1180,     1181,     1182,     1183,     1184
    1185,     1186,     1187,     1188,     1189,     1190,     1191,     1192,     1193,     1194,     1195,     1196,     1197,     1198,     1199,     1200
    1201,     1202,     1203,     1204,     1205,     1206,     1207,     1208,     1209,     1210,     1211,     1212,     1213,     1214,     1215,     1216
    1217,     1218,     1219,     1220,     1221,     1222,     1223,     1224,     1225,     1226,     1227,     1228,     1229,     1230,     1231,     1232
    1233,     1234,     1235,     1236,     1237,     1238,     1239,     1240,     1241,     1242,     1243,     1244,     1245,     1246,     1247,     1248
    1249,     1250,     1251,     1252,     1253,     1254,     1255,     1256,     1257,     1258,     1259,     1260,     1261,     1262,     1263,     1264
    1265,     1266,     1267,     1268,     1269,     1270,     1271,     1272,     1273,     1274,     1275,     1276,     1277,     1278,     1279,     1280
    1281,     1282,     1283,     1284,     1285,     1286,     1287,     1288,     1289,     1290,     1291,     1292,     1293,     1294,     1295,     1296
    1297,     1298,     1299,     1300,     1301,     1302,     1303,     1304,     1305,     1306,     1307,     1308,     1309,     1310,     1311,     1312
    1313,     1314,     1315,     1316,     1317,     1318,     1319,     1320,     1321,     1322,     1323,     1324,     1325,     1326,     1327,     1328
    1329,     1330,     1331,     1332,     1333,     1334,     1335,     1336,     1337,     1338,     1339,     1340,     1341,     1342,     1343,     1344
    1345,     1346,     1347,     1348,     1349,     1350,     1351,     1352,     1353
*Nset, nset=Top
     273,      274,      275,      276,      279,      280,      281,      282,      283,      286,      287,      288,      289,      290,      291,      292
     293,      294,      295,      296,      297,      298,      299,      300,      301,      302,      303,      304,      305,      306,      307,      308
     309,      310,      311,      312,      313,      314,      315,      316,      317,      318,      319,      320,      321,      322,      323,      324
     325,      326,      327,      328,      329,      330,      331,      332,      333,      334,      335,      336,      337,      338,      339,      340
     341,      342,      343,      344,     1220,     1223,     1225,     1227,     1229,     1231,     1233,     1235,     1237,     1239,     1241,     1243
    1245,     1247,     1249,     1251,     1253,     1255,     1257,     1259,     1261,     1263,     1265,     1267,     1269,     1271,     1273,     1275
    1277,     1279,     1281,     1283,     1285,     1287,     1289,     1291,     1293,     1295,     1297,     1299,     1301,     1303,     1305,     1307
    1309,     1311,     1313,     1315,     1317,     1319,     1321,     1323,     1325,     1327,     1329,     1331,     1333,     1335,     1337,     1339
    1341,     1343,     1345,     1347,     1349,     1351,     1353
*Nset, nset=Left
      68,      136,      204,      272,      275,      277,      278,      677,      812,      947,      951,     1086,     1221
*Nset, nset=Right
       1,       69,      137,      205,      276,      284,      285,      480,      681,      816,     1082,     1217,     1352
*Nset, nset=Right1
       1,       69,      137,      284,      285,      480,      681,      816,     1082,     1217,     1352
** Match the original Quad4 node-to-surface contact sampling. The six Quad8
** midside nodes remain in Right1 so the Slider MPC keeps the edge straight,
** but putting them in both Slider and contact overconstrains the edge.
*Nset, nset=RightContact
       1,       69,      137,      205,      276,      284,      285
*Nset, nset=n1
205
*Nset, nset=n2
276
*Nset, nset=PinnedCorner
272
*Surface, Type=Node, Name=RightSurf
RightContact
*Surface, Type=Node, Name=TopSurf
Top
*Node
1355, 0.0, 0.0
1356, 1.0e-5, 0.0
1357, 1.0e-5, 1.0e-5
1358, 0.0, 1.0e-5
*Nset, nset=tempElement
1355,1356,1357,1358
*Element, Type=CPE4T, elset=tempElement
403,1355,1356,1357,1358
*Node
1354,0.0,0.e-3
*Nset, Nset=RigidRef
1354
*Surface, type=SEGMENTS, name=RigidSurf
START,0.0,   0.e-3
LINE, 0.0, -50.e-3
*Rigid Body, ref node=RigidRef, analytical surface=RigidSurf
*uel property, elset=GelSet
*Include, Input=ElasticGelProps_upmu_quad8.inp
*Solid section, elset=RubberSet, material=RubberMaterial
*Material, name=RubberMaterial
*Hyperelastic, neo hooke
<C10>,<D>
** Display-only overlay. Do not interpret its S or E fields.
*Solid section, elset=GelVisualization, material=VisualizationMaterial
*Material, name=VisualizationMaterial
*Elastic
1.e-20, 0.3
*Solid section, elset=tempElement, material=Material-2
*Material, name=Material-2
*Elastic
1.e-20
*Conductivity
1.0
*Density
1.0
*Specific heat
1.0
*MPC
Slider, right1, n1, n2
*Contact Pair, Interaction=int, Type=node to surface
RightSurf,RigidSurf
TopSurf,RigidSurf
*Surface Interaction, name=int
*Friction
0.0
*Surface Behavior, pressure-overclosure=hard
** Computational mu=0 is the initial dry physical chemical potential.
** Abaqus temperature initial conditions address DOF 11, which is p here.
*Initial conditions, type=temperature
tempElement, 0.0
** This decay is physical mu(t)-initMU: zero initially, -initMU finally.
*Amplitude, name=chemProfile, definition=decay
<mu0>,<initMU>,0.0,300.0
*Step, Name=Swell, nlgeom=yes, inc=50000
** DELTMX is omitted because Abaqus also applies it to pressure DOF 11.
*Coupled temperature-displacement, creep=none
10.0,<tf>,1.e-6,100.0
*Controls, Parameters=Line Search
10,1.0,0.0001,0.25,0.10
*Controls, Parameters=Time Incrementation
,,,,,,,10,,,,,,
*Boundary
Left,1,1
PinnedCorner,1,2
RigidRef,encastre
*Boundary, amplitude=chemProfile
Top,12,12,1.0
*Boundary
tempElement,encastre
tempElement,11,11,0.0
*Output, field, number interval=100, time marks=no
*node output, nset=Nall
u
*node output, nset=tempElement
u
*node output, nset=RigidRef
u
*element output, elset=RubberSet
le
*End Step
